
     Program PWSCF v.6.7MaX starts on 19Sep2026 at  3: 4:42 

     This program is part of the open-source Quantum ESPRESSO suite
     for quantum simulation of materials; please cite
         "P. Giannozzi et al., J. Phys.:Condens. Matter 21 395502 (2009);
         "P. Giannozzi et al., J. Phys.:Condens. Matter 29 465901 (2017);
          URL http://www.quantum-espresso.org", 
     in publications or presentations arising from this work. More details at
     http://www.quantum-espresso.org/quote

     Parallel version (MPI), running on    24 processors

     MPI processes distributed on     1 nodes
     R & G space division:  proc/nbgrp/npool/nimage =      24
     Reading input from 01_tin111_relax.in

     Current dimensions of program PWSCF are:
     Max number of different atomic species (ntypx) = 10
     Max number of k-points (npk) =  40000
     Max angular momentum in pseudopotentials (lmaxx) =  3
     file Ti.pbe-spn-rrkjus_psl.1.0.0.UPF: wavefunction(s)  3S 3D renormalized

     IMPORTANT: XC functional enforced from input :
     Exchange-correlation= PBE
                           (   1   4   3   4   0   0   0)
     Any further DFT definition will be discarded
     Please, verify this is what you really want


     Subspace diagonalization in iterative solution of the eigenvalue problem:
     one sub-group per band group will be used
     scalapack distributed-memory algorithm (size of sub-group:  4*  4 procs)

     Message from routine setup:
     using ibrav=0 with symmetry is DISCOURAGED, use correct ibrav instead

     Parallelization info
     --------------------
     sticks:   dense  smooth     PW     G-vecs:    dense   smooth      PW
     Min          55      21      6                22861     5727     946
     Max          56      22      7                22910     5804    1023
     Sum        1333     517    163               549067   138223   23767



     bravais-lattice index     =            0
     lattice parameter (alat)  =       5.6710  a.u.
     unit-cell volume          =    2213.2960 (a.u.)^3
     number of atoms/cell      =           19
     number of atomic types    =            2
     number of electrons       =       165.00
     number of Kohn-Sham states=          120
     kinetic-energy cutoff     =      60.0000  Ry
     charge density cutoff     =     600.0000  Ry
     scf convergence threshold =      1.0E-08
     mixing beta               =       0.2000
     number of iterations used =            8  plain     mixing
     energy convergence thresh.=      1.0E-05
     force convergence thresh. =      1.0E-03
     Exchange-correlation= PBE
                           (   1   4   3   4   0   0   0)
     nstep                     =           50


     celldm(1)=   5.670995  celldm(2)=   0.000000  celldm(3)=   0.000000
     celldm(4)=   0.000000  celldm(5)=   0.000000  celldm(6)=   0.000000

     crystal axes: (cart. coord. in units of alat)
               a(1) = (   1.000000   0.000000   0.000000 )  
               a(2) = (   0.500000   0.866025   0.000000 )  
               a(3) = (   0.000000   0.000000  14.013001 )  

     reciprocal axes: (cart. coord. in units 2 pi/alat)
               b(1) = (  1.000000 -0.577350  0.000000 )  
               b(2) = (  0.000000  1.154701  0.000000 )  
               b(3) = (  0.000000  0.000000  0.071362 )  


     PseudoPot. # 1 for Ti read from file:
     ./pseudo/Ti.pbe-spn-rrkjus_psl.1.0.0.UPF
     MD5 check sum: e281089c08e14b8efcf92e44a67ada65
     Pseudo is Ultrasoft + core correction, Zval = 12.0
     Generated using &quot;atomic&quot; code by A. Dal Corso  v.6.2.2
     Using radial grid of 1177 points,  6 beta functions with: 
                l(1) =   0
                l(2) =   0
                l(3) =   1
                l(4) =   1
                l(5) =   2
                l(6) =   2
     Q(r) pseudized with 0 coefficients 


     PseudoPot. # 2 for N  read from file:
     ./pseudo/N.pbe-n-rrkjus_psl.1.0.0.UPF
     MD5 check sum: ada94e3ed05223de5319d0572dc76806
     Pseudo is Ultrasoft + core correction, Zval =  5.0
     Generated using &quot;atomic&quot; code by A. Dal Corso  v.6.3MaX
     Using radial grid of 1085 points,  4 beta functions with: 
                l(1) =   0
                l(2) =   0
                l(3) =   1
                l(4) =   1
     Q(r) pseudized with 0 coefficients 


     atomic species   valence    mass     pseudopotential
        Ti            12.00    47.86700     Ti( 1.00)
        N              5.00    14.00670     N ( 1.00)

     12 Sym. Ops., with inversion, found


                                    s                        frac. trans.

      isym =  1     identity                                     

 cryst.   s( 1) = (     1          0          0      )
                  (     0          1          0      )
                  (     0          0          1      )

 cart.    s( 1) = (  1.0000000  0.0000000  0.0000000 )
                  (  0.0000000  1.0000000  0.0000000 )
                  (  0.0000000  0.0000000  1.0000000 )


      isym =  2     180 deg rotation - cart. axis [1,0,0]        

 cryst.   s( 2) = (     1          0          0      )
                  (     1         -1          0      )
                  (     0          0         -1      )

 cart.    s( 2) = (  1.0000000  0.0000000  0.0000000 )
                  (  0.0000000 -1.0000000  0.0000000 )
                  (  0.0000000  0.0000000 -1.0000000 )


      isym =  3     120 deg rotation - cryst. axis [0,0,1]       

 cryst.   s( 3) = (    -1          1          0      )
                  (    -1          0          0      )
                  (     0          0          1      )

 cart.    s( 3) = ( -0.5000000 -0.8660254  0.0000000 )
                  (  0.8660254 -0.5000000  0.0000000 )
                  (  0.0000000  0.0000000  1.0000000 )


      isym =  4     120 deg rotation - cryst. axis [0,0,-1]      

 cryst.   s( 4) = (     0         -1          0      )
                  (     1         -1          0      )
                  (     0          0          1      )

 cart.    s( 4) = ( -0.5000000  0.8660254  0.0000000 )
                  ( -0.8660254 -0.5000000  0.0000000 )
                  (  0.0000000  0.0000000  1.0000000 )


      isym =  5     180 deg rotation - cryst. axis [0,1,0]       

 cryst.   s( 5) = (     0         -1          0      )
                  (    -1          0          0      )
                  (     0          0         -1      )

 cart.    s( 5) = ( -0.5000000 -0.8660254  0.0000000 )
                  ( -0.8660254  0.5000000  0.0000000 )
                  (  0.0000000  0.0000000 -1.0000000 )


      isym =  6     180 deg rotation - cryst. axis [1,1,0]       

 cryst.   s( 6) = (    -1          1          0      )
                  (     0          1          0      )
                  (     0          0         -1      )

 cart.    s( 6) = ( -0.5000000  0.8660254  0.0000000 )
                  (  0.8660254  0.5000000  0.0000000 )
                  (  0.0000000  0.0000000 -1.0000000 )


      isym =  7     inversion                                    

 cryst.   s( 7) = (    -1          0          0      )
                  (     0         -1          0      )
                  (     0          0         -1      )

 cart.    s( 7) = ( -1.0000000  0.0000000  0.0000000 )
                  (  0.0000000 -1.0000000  0.0000000 )
                  (  0.0000000  0.0000000 -1.0000000 )


      isym =  8     inv. 180 deg rotation - cart. axis [1,0,0]   

 cryst.   s( 8) = (    -1          0          0      )
                  (    -1          1          0      )
                  (     0          0          1      )

 cart.    s( 8) = ( -1.0000000  0.0000000  0.0000000 )
                  (  0.0000000  1.0000000  0.0000000 )
                  (  0.0000000  0.0000000  1.0000000 )


      isym =  9     inv. 120 deg rotation - cryst. axis [0,0,1]  

 cryst.   s( 9) = (     1         -1          0      )
                  (     1          0          0      )
                  (     0          0         -1      )

 cart.    s( 9) = (  0.5000000  0.8660254  0.0000000 )
                  ( -0.8660254  0.5000000  0.0000000 )
                  (  0.0000000  0.0000000 -1.0000000 )


      isym = 10     inv. 120 deg rotation - cryst. axis [0,0,-1] 

 cryst.   s(10) = (     0          1          0      )
                  (    -1          1          0      )
                  (     0          0         -1      )

 cart.    s(10) = (  0.5000000 -0.8660254  0.0000000 )
                  (  0.8660254  0.5000000  0.0000000 )
                  (  0.0000000  0.0000000 -1.0000000 )


      isym = 11     inv. 180 deg rotation - cryst. axis [0,1,0]  

 cryst.   s(11) = (     0          1          0      )
                  (     1          0          0      )
                  (     0          0          1      )

 cart.    s(11) = (  0.5000000  0.8660254  0.0000000 )
                  (  0.8660254 -0.5000000  0.0000000 )
                  (  0.0000000  0.0000000  1.0000000 )


      isym = 12     inv. 180 deg rotation - cryst. axis [1,1,0]  

 cryst.   s(12) = (     1         -1          0      )
                  (     0         -1          0      )
                  (     0          0          1      )

 cart.    s(12) = (  0.5000000 -0.8660254  0.0000000 )
                  ( -0.8660254 -0.5000000  0.0000000 )
                  (  0.0000000  0.0000000  1.0000000 )


   Cartesian axes

     site n.     atom                  positions (alat units)
         1           Ti  tau(   1) = (   0.0000000   0.0000000   3.3322657  )
         2           N   tau(   2) = (   0.5000000   0.2886751   3.7405140  )
         3           Ti  tau(   3) = (   1.0000000   0.5773503   4.1487623  )
         4           N   tau(   4) = (   0.0000000   0.0000000   4.5570106  )
         5           Ti  tau(   5) = (   0.5000000   0.2886751   4.9652589  )
         6           N   tau(   6) = (   1.0000000   0.5773503   5.3735072  )
         7           Ti  tau(   7) = (   0.0000000   0.0000000   5.7817554  )
         8           N   tau(   8) = (   0.5000000   0.2886751   6.1900037  )
         9           Ti  tau(   9) = (   1.0000000   0.5773503   6.5982520  )
        10           N   tau(  10) = (   0.0000000   0.0000000   7.0065003  )
        11           Ti  tau(  11) = (   0.5000000   0.2886751   7.4147486  )
        12           N   tau(  12) = (   1.0000000   0.5773503   7.8229969  )
        13           Ti  tau(  13) = (   0.0000000   0.0000000   8.2312452  )
        14           N   tau(  14) = (   0.5000000   0.2886751   8.6394935  )
        15           Ti  tau(  15) = (   1.0000000   0.5773503   9.0477418  )
        16           N   tau(  16) = (   0.0000000   0.0000000   9.4559901  )
        17           Ti  tau(  17) = (   0.5000000   0.2886751   9.8642383  )
        18           N   tau(  18) = (   1.0000000   0.5773503  10.2724866  )
        19           Ti  tau(  19) = (   0.0000000   0.0000000  10.6807349  )

   Crystallographic axes

     site n.     atom                  positions (cryst. coord.)
         1           Ti  tau(   1) = (  0.0000000  0.0000000  0.2377982  )
         2           N   tau(   2) = (  0.3333333  0.3333333  0.2669317  )
         3           Ti  tau(   3) = (  0.6666667  0.6666667  0.2960652  )
         4           N   tau(   4) = (  0.0000000  0.0000000  0.3251988  )
         5           Ti  tau(   5) = (  0.3333333  0.3333333  0.3543323  )
         6           N   tau(   6) = (  0.6666667  0.6666667  0.3834658  )
         7           Ti  tau(   7) = (  0.0000000  0.0000000  0.4125994  )
         8           N   tau(   8) = (  0.3333333  0.3333333  0.4417329  )
         9           Ti  tau(   9) = (  0.6666667  0.6666667  0.4708665  )
        10           N   tau(  10) = (  0.0000000  0.0000000  0.5000000  )
        11           Ti  tau(  11) = (  0.3333333  0.3333333  0.5291335  )
        12           N   tau(  12) = (  0.6666667  0.6666667  0.5582671  )
        13           Ti  tau(  13) = (  0.0000000  0.0000000  0.5874006  )
        14           N   tau(  14) = (  0.3333333  0.3333333  0.6165342  )
        15           Ti  tau(  15) = (  0.6666667  0.6666667  0.6456677  )
        16           N   tau(  16) = (  0.0000000  0.0000000  0.6748012  )
        17           Ti  tau(  17) = (  0.3333333  0.3333333  0.7039348  )
        18           N   tau(  18) = (  0.6666667  0.6666667  0.7330683  )
        19           Ti  tau(  19) = (  0.0000000  0.0000000  0.7622018  )

     number of k points=    19  Marzari-Vanderbilt smearing, width (Ry)=  0.0100
                       cart. coord. in units 2pi/alat
        k(    1) = (   0.0000000   0.0000000   0.0000000), wk =   0.0138889
        k(    2) = (   0.0000000   0.0962250   0.0000000), wk =   0.0833333
        k(    3) = (   0.0000000   0.1924501   0.0000000), wk =   0.0833333
        k(    4) = (   0.0000000   0.2886751   0.0000000), wk =   0.0833333
        k(    5) = (   0.0000000   0.3849002   0.0000000), wk =   0.0833333
        k(    6) = (   0.0000000   0.4811252   0.0000000), wk =   0.0833333
        k(    7) = (   0.0000000  -0.5773503   0.0000000), wk =   0.0416667
        k(    8) = (   0.0833333   0.1443376   0.0000000), wk =   0.0833333
        k(    9) = (   0.0833333   0.2405626   0.0000000), wk =   0.1666667
        k(   10) = (   0.0833333   0.3367877   0.0000000), wk =   0.1666667
        k(   11) = (   0.0833333   0.4330127   0.0000000), wk =   0.1666667
        k(   12) = (   0.0833333  -0.6254628   0.0000000), wk =   0.1666667
        k(   13) = (   0.1666667   0.2886751   0.0000000), wk =   0.0833333
        k(   14) = (   0.1666667   0.3849002   0.0000000), wk =   0.1666667
        k(   15) = (   0.1666667  -0.6735753   0.0000000), wk =   0.1666667
        k(   16) = (   0.1666667  -0.5773503   0.0000000), wk =   0.0833333
        k(   17) = (   0.2500000  -0.7216878   0.0000000), wk =   0.0833333
        k(   18) = (   0.2500000  -0.6254628   0.0000000), wk =   0.1666667
        k(   19) = (   0.3333333  -0.5773503   0.0000000), wk =   0.0277778

                       cryst. coord.
        k(    1) = (   0.0000000   0.0000000   0.0000000), wk =   0.0138889
        k(    2) = (   0.0000000   0.0833333   0.0000000), wk =   0.0833333
        k(    3) = (   0.0000000   0.1666667   0.0000000), wk =   0.0833333
        k(    4) = (   0.0000000   0.2500000   0.0000000), wk =   0.0833333
        k(    5) = (   0.0000000   0.3333333   0.0000000), wk =   0.0833333
        k(    6) = (   0.0000000   0.4166667   0.0000000), wk =   0.0833333
        k(    7) = (   0.0000000  -0.5000000   0.0000000), wk =   0.0416667
        k(    8) = (   0.0833333   0.1666667   0.0000000), wk =   0.0833333
        k(    9) = (   0.0833333   0.2500000   0.0000000), wk =   0.1666667
        k(   10) = (   0.0833333   0.3333333   0.0000000), wk =   0.1666667
        k(   11) = (   0.0833333   0.4166667   0.0000000), wk =   0.1666667
        k(   12) = (   0.0833333  -0.5000000   0.0000000), wk =   0.1666667
        k(   13) = (   0.1666667   0.3333333   0.0000000), wk =   0.0833333
        k(   14) = (   0.1666667   0.4166667   0.0000000), wk =   0.1666667
        k(   15) = (   0.1666667  -0.5000000   0.0000000), wk =   0.1666667
        k(   16) = (   0.1666667  -0.4166667   0.0000000), wk =   0.0833333
        k(   17) = (   0.2500000  -0.5000000   0.0000000), wk =   0.0833333
        k(   18) = (   0.2500000  -0.4166667   0.0000000), wk =   0.1666667
        k(   19) = (   0.3333333  -0.3333333   0.0000000), wk =   0.0277778

     Dense  grid:   549067 G-vectors     FFT dimensions: (  45,  45, 625)

     Smooth grid:   138223 G-vectors     FFT dimensions: (  27,  27, 400)

     Dynamical RAM for                 wfc:       1.32 MB

     Dynamical RAM for     wfc (w. buffer):      26.48 MB

     Dynamical RAM for           str. fact:       0.70 MB

     Dynamical RAM for           local pot:       0.00 MB

     Dynamical RAM for          nlocal pot:       2.78 MB

     Dynamical RAM for                qrad:       3.93 MB

     Dynamical RAM for          rho,v,vnew:       2.30 MB

     Dynamical RAM for               rhoin:       0.77 MB

     Dynamical RAM for            rho*nmix:       5.58 MB

     Dynamical RAM for           G-vectors:       1.35 MB

     Dynamical RAM for          h,s,v(r/c):       0.16 MB

     Dynamical RAM for          <psi|beta>:       0.46 MB

     Dynamical RAM for                 psi:       2.65 MB

     Dynamical RAM for                hpsi:       2.65 MB

     Dynamical RAM for                spsi:       2.65 MB

     Dynamical RAM for      wfcinit/wfcrot:       3.43 MB

     Dynamical RAM for           addusdens:      68.37 MB

     Dynamical RAM for          addusforce:      74.86 MB

     Dynamical RAM for         addusstress:      70.12 MB

     Estimated static dynamical RAM per process >      47.01 MB

     Estimated max dynamical RAM per process >     121.88 MB

     Estimated total dynamical RAM >       2.86 GB

     Check: negative core charge=   -0.000003

     Initial potential from superposition of free atoms

     starting charge  164.98515, renormalised to  165.00000

     negative rho (up, down):  2.482E-04 0.000E+00
     Starting wfcs are  136 randomized atomic wfcs

     total cpu time spent up to now is        9.4 secs

     Self-consistent Calculation

     iteration #  1     ecut=    60.00 Ry     beta= 0.20
     Davidson diagonalization with overlap
     ethr =  1.00E-02,  avg # of iterations =  2.1

     negative rho (up, down):  1.276E-04 0.000E+00

     total cpu time spent up to now is       33.2 secs

     total energy              =   -1378.57302621 Ry
     estimated scf accuracy    <      19.87580290 Ry

     iteration #  2     ecut=    60.00 Ry     beta= 0.20
     Davidson diagonalization with overlap
     ethr =  1.00E-02,  avg # of iterations =  7.0

     total cpu time spent up to now is       83.7 secs

     total energy              =   -1326.73390982 Ry
     estimated scf accuracy    <    7377.17561872 Ry

     iteration #  3     ecut=    60.00 Ry     beta= 0.20
     Davidson diagonalization with overlap
     ethr =  1.00E-02,  avg # of iterations =  7.8

     total cpu time spent up to now is      127.4 secs

     total energy              =   -1382.87519385 Ry
     estimated scf accuracy    <       8.92833404 Ry

     iteration #  4     ecut=    60.00 Ry     beta= 0.20
     Davidson diagonalization with overlap
     ethr =  5.41E-03,  avg # of iterations =  2.2

     total cpu time spent up to now is      148.3 secs

     total energy              =   -1382.67619099 Ry
     estimated scf accuracy    <      32.50092504 Ry

     iteration #  5     ecut=    60.00 Ry     beta= 0.20
     Davidson diagonalization with overlap
     ethr =  5.41E-03,  avg # of iterations =  2.8

     total cpu time spent up to now is      168.8 secs

     total energy              =   -1383.13975441 Ry
     estimated scf accuracy    <      82.75814880 Ry

     iteration #  6     ecut=    60.00 Ry     beta= 0.20
     Davidson diagonalization with overlap
     ethr =  5.41E-03,  avg # of iterations =  1.2

     total cpu time spent up to now is      186.2 secs

     total energy              =   -1383.72570963 Ry
     estimated scf accuracy    <       3.79630804 Ry

     iteration #  7     ecut=    60.00 Ry     beta= 0.20
     Davidson diagonalization with overlap
     ethr =  2.30E-03,  avg # of iterations =  1.4

     total cpu time spent up to now is      203.9 secs

     total energy              =   -1383.71928558 Ry
     estimated scf accuracy    <       1.11034725 Ry

     iteration #  8     ecut=    60.00 Ry     beta= 0.20
     Davidson diagonalization with overlap
     ethr =  6.73E-04,  avg # of iterations =  5.8

     total cpu time spent up to now is      228.0 secs

     total energy              =   -1383.72318843 Ry
     estimated scf accuracy    <       0.37012592 Ry

     iteration #  9     ecut=    60.00 Ry     beta= 0.20
     Davidson diagonalization with overlap
     ethr =  2.24E-04,  avg # of iterations =  5.5

     total cpu time spent up to now is      250.2 secs

     total energy              =   -1383.71497467 Ry
     estimated scf accuracy    <       0.24946517 Ry

     iteration # 10     ecut=    60.00 Ry     beta= 0.20
     Davidson diagonalization with overlap
     ethr =  1.51E-04,  avg # of iterations =  1.9

     total cpu time spent up to now is      269.0 secs

     total energy              =   -1383.70912727 Ry
     estimated scf accuracy    <       0.29865131 Ry

     iteration # 11     ecut=    60.00 Ry     beta= 0.20
     Davidson diagonalization with overlap
     ethr =  1.51E-04,  avg # of iterations =  1.0

     total cpu time spent up to now is      286.2 secs

     total energy              =   -1383.68968204 Ry
     estimated scf accuracy    <       0.14316908 Ry

     iteration # 12     ecut=    60.00 Ry     beta= 0.20
     Davidson diagonalization with overlap
     ethr =  8.68E-05,  avg # of iterations =  2.2

     total cpu time spent up to now is      306.2 secs

     total energy              =   -1383.68850333 Ry
     estimated scf accuracy    <       0.03143279 Ry

     iteration # 13     ecut=    60.00 Ry     beta= 0.20
     Davidson diagonalization with overlap
     ethr =  1.91E-05,  avg # of iterations =  5.4

     total cpu time spent up to now is      329.6 secs

     total energy              =   -1383.68982066 Ry
     estimated scf accuracy    <       0.02421114 Ry

     iteration # 14     ecut=    60.00 Ry     beta= 0.20
     Davidson diagonalization with overlap
     ethr =  1.47E-05,  avg # of iterations =  2.2

     total cpu time spent up to now is      350.2 secs

     total energy              =   -1383.69181639 Ry
     estimated scf accuracy    <       0.02790692 Ry

     iteration # 15     ecut=    60.00 Ry     beta= 0.20
     Davidson diagonalization with overlap
     ethr =  1.47E-05,  avg # of iterations =  1.0

     negative rho (up, down):  2.603E-07 0.000E+00

     total cpu time spent up to now is      368.7 secs

     total energy              =   -1383.69251158 Ry
     estimated scf accuracy    <       0.00039560 Ry

     iteration # 16     ecut=    60.00 Ry     beta= 0.20
     Davidson diagonalization with overlap
     c_bands:  1 eigenvalues not converged
     ethr =  2.40E-07,  avg # of iterations =  9.1

     negative rho (up, down):  1.184E-06 0.000E+00

     total cpu time spent up to now is      394.1 secs

     total energy              =   -1383.69252397 Ry
     estimated scf accuracy    <       0.00421788 Ry

     iteration # 17     ecut=    60.00 Ry     beta= 0.20
     Davidson diagonalization with overlap
     ethr =  2.40E-07,  avg # of iterations =  1.2

     negative rho (up, down):  3.552E-05 0.000E+00

     total cpu time spent up to now is      411.4 secs

     total energy              =   -1383.69256166 Ry
     estimated scf accuracy    <       0.00022003 Ry

     iteration # 18     ecut=    60.00 Ry     beta= 0.20
     Davidson diagonalization with overlap
     ethr =  1.33E-07,  avg # of iterations =  1.0

     negative rho (up, down):  6.701E-05 0.000E+00

     total cpu time spent up to now is      429.4 secs

     total energy              =   -1383.69256480 Ry
     estimated scf accuracy    <       0.00001891 Ry

     iteration # 19     ecut=    60.00 Ry     beta= 0.20
     Davidson diagonalization with overlap
     ethr =  1.15E-08,  avg # of iterations =  2.2

     negative rho (up, down):  1.162E-04 0.000E+00

     total cpu time spent up to now is      448.6 secs

     total energy              =   -1383.69256511 Ry
     estimated scf accuracy    <       0.00001193 Ry

     iteration # 20     ecut=    60.00 Ry     beta= 0.20
     Davidson diagonalization with overlap
     ethr =  7.23E-09,  avg # of iterations =  1.3

     negative rho (up, down):  1.436E-04 0.000E+00

     total cpu time spent up to now is      467.5 secs

     total energy              =   -1383.69256574 Ry
     estimated scf accuracy    <       0.00000282 Ry

     iteration # 21     ecut=    60.00 Ry     beta= 0.20
     Davidson diagonalization with overlap
     ethr =  1.71E-09,  avg # of iterations =  2.2

     negative rho (up, down):  1.909E-04 0.000E+00

     total cpu time spent up to now is      486.5 secs

     total energy              =   -1383.69256574 Ry
     estimated scf accuracy    <       0.00000117 Ry

     iteration # 22     ecut=    60.00 Ry     beta= 0.20
     Davidson diagonalization with overlap
     ethr =  7.12E-10,  avg # of iterations =  2.2

     negative rho (up, down):  1.923E-04 0.000E+00

     total cpu time spent up to now is      506.8 secs

     total energy              =   -1383.69256576 Ry
     estimated scf accuracy    <       0.00000867 Ry

     iteration # 23     ecut=    60.00 Ry     beta= 0.20
     Davidson diagonalization with overlap
     ethr =  7.12E-10,  avg # of iterations =  1.0

     negative rho (up, down):  2.251E-04 0.000E+00

     total cpu time spent up to now is      524.2 secs

     total energy              =   -1383.69256584 Ry
     estimated scf accuracy    <       0.00000009 Ry

     iteration # 24     ecut=    60.00 Ry     beta= 0.20
     Davidson diagonalization with overlap
     ethr =  5.53E-11,  avg # of iterations =  3.4

     negative rho (up, down):  2.232E-04 0.000E+00

     total cpu time spent up to now is      546.4 secs

     total energy              =   -1383.69256585 Ry
     estimated scf accuracy    <       0.00000004 Ry

     iteration # 25     ecut=    60.00 Ry     beta= 0.20
     Davidson diagonalization with overlap
     ethr =  2.71E-11,  avg # of iterations =  1.7

     negative rho (up, down):  2.251E-04 0.000E+00

     total cpu time spent up to now is      566.8 secs

     total energy              =   -1383.69256586 Ry
     estimated scf accuracy    <       0.00000001 Ry

     iteration # 26     ecut=    60.00 Ry     beta= 0.20
     Davidson diagonalization with overlap
     ethr =  6.82E-12,  avg # of iterations =  2.1

     negative rho (up, down):  2.247E-04 0.000E+00

     total cpu time spent up to now is      587.6 secs

     End of self-consistent calculation

          k = 0.0000 0.0000 0.0000 ( 17133 PWs)   bands (ev):

   -50.0819 -50.0812 -50.0442 -50.0165 -49.9882 -49.9685 -49.9232 -49.9232
   -49.4683 -49.4683 -26.6843 -26.6383 -26.5459 -26.4246 -26.3142 -26.2320
   -26.1548 -26.1437 -26.1437 -26.1436 -26.1436 -26.0990 -26.0990 -26.0842
   -26.0834 -26.0834 -26.0666 -26.0666 -26.0545 -26.0545 -25.9978 -25.9978
   -25.9978 -25.9978 -25.8324 -25.8323 -25.4681 -25.4681 -25.4681 -25.4681
    -9.2638  -9.1128  -8.8524  -8.5300  -8.1705  -7.7830  -7.4158  -7.1212
    -6.9146  -0.1756   0.1522   0.6726   1.3176   2.0599   2.3635   2.3635
     2.5137   2.5137   2.7818   2.7818   2.8898   3.1325   3.1325   3.5475
     3.5475   3.7580   4.0325   4.0325   4.5673   4.5673   4.6086   5.0995
     5.0995   5.3693   5.5578   5.5578   6.9003   6.9729   7.2522   7.2522
     7.3724   7.4258   7.4258   7.5468   7.6864   7.6864   7.7758   7.9933
     7.9933   8.0611   8.2945   8.2945   8.3653   8.5025   8.5025   8.6074
     8.6074   8.7070   8.8534   8.8534   8.9746   8.9746   9.0950   9.2923
     9.2923   9.3419   9.3419   9.4867   9.5264   9.5264   9.5726   9.5726
     9.8234  10.0619  10.0936  10.0936  10.7885  10.7885  11.5009  11.5009

     occupation numbers 
     1.0000   1.0000   1.0000   1.0000   1.0000   1.0000   1.0000   1.0000
     1.0000   1.0000   1.0000   1.0000   1.0000   1.0000   1.0000   1.0000
     1.0000   1.0000   1.0000   1.0000   1.0000   1.0000   1.0000   1.0000
     1.0000   1.0000   1.0000   1.0000   1.0000   1.0000   1.0000   1.0000
     1.0000   1.0000   1.0000   1.0000   1.0000   1.0000   1.0000   1.0000
     1.0000   1.0000   1.0000   1.0000   1.0000   1.0000   1.0000   1.0000
     1.0000   1.0000   1.0000   1.0000   1.0000   1.0000   1.0000   1.0000
     1.0000   1.0000   1.0000   1.0000   1.0000   1.0000   1.0000   1.0000
     1.0000   1.0000   1.0000   1.0000   1.0000   1.0000   1.0000   1.0000
     1.0000   1.0000   1.0000   1.0000   1.0000   1.0000   1.0000   1.0000
     1.0006   1.0035   1.0035   1.0497   0.9841   0.9841   0.5630   0.0068
     0.0068   0.0006   0.0000   0.0000   0.0000   0.0000   0.0000   0.0000
     0.0000   0.0000   0.0000   0.0000   0.0000   0.0000   0.0000   0.0000
     0.0000   0.0000   0.0000   0.0000   0.0000   0.0000   0.0000   0.0000
     0.0000   0.0000   0.0000   0.0000   0.0000   0.0000   0.0000   0.0000

          k = 0.0000 0.0962 0.0000 ( 17192 PWs)   bands (ev):

   -50.0769 -50.0763 -50.0391 -50.0121 -49.9846 -49.9655 -49.9191 -49.9191
   -49.4645 -49.4644 -26.6685 -26.6251 -26.5371 -26.4218 -26.3176 -26.2394
   -26.1729 -26.1713 -26.1630 -26.1524 -26.1523 -26.1292 -26.1105 -26.1097
   -26.0987 -26.0911 -26.0822 -26.0769 -26.0712 -26.0570 -26.0284 -26.0278
   -26.0043 -26.0043 -25.8283 -25.8283 -25.4962 -25.4962 -25.4743 -25.4743
    -9.1460  -9.0026  -8.7550  -8.4499  -8.1125  -7.7510  -7.4126  -7.1463
    -6.9613  -0.0282   0.2716   0.7435   1.3142   1.9443   2.3637   2.4132
     2.5145   2.5576   2.6095   2.8153   2.8233   3.1350   3.1501   3.3298
     3.5420   3.6217   3.9538   3.9928   4.1672   4.4736   4.5391   4.7092
     4.9205   4.9799   5.1947   5.2663   6.8224   6.8516   7.0801   7.2843
     7.4008   7.5195   7.5856   7.5903   7.7747   7.8368   7.8553   8.0373
     8.1210   8.1352   8.3391   8.3942   8.3959   8.5621   8.6595   8.6904
     8.6936   8.9167   8.9610   9.0045   9.0400   9.0412   9.2502   9.3195
     9.3434   9.3694   9.4190   9.5132   9.5748   9.6219   9.7203   9.7653
     9.9457  10.0472  10.1579  10.1627  10.7022  10.8368  11.3431  11.5270

     occupation numbers 
     1.0000   1.0000   1.0000   1.0000   1.0000   1.0000   1.0000   1.0000
     1.0000   1.0000   1.0000   1.0000   1.0000   1.0000   1.0000   1.0000
     1.0000   1.0000   1.0000   1.0000   1.0000   1.0000   1.0000   1.0000
     1.0000   1.0000   1.0000   1.0000   1.0000   1.0000   1.0000   1.0000
     1.0000   1.0000   1.0000   1.0000   1.0000   1.0000   1.0000   1.0000
     1.0000   1.0000   1.0000   1.0000   1.0000   1.0000   1.0000   1.0000
     1.0000   1.0000   1.0000   1.0000   1.0000   1.0000   1.0000   1.0000
     1.0000   1.0000   1.0000   1.0000   1.0000   1.0000   1.0000   1.0000
     1.0000   1.0000   1.0000   1.0000   1.0000   1.0000   1.0000   1.0000
     1.0000   1.0000   1.0000   1.0000   1.0000   1.0000   1.0000   1.0000
     1.0016   1.0323   1.0749   1.0772   0.5689   0.2612   0.1930   0.0016
     0.0001   0.0000   0.0000   0.0000   0.0000   0.0000   0.0000   0.0000
     0.0000   0.0000   0.0000   0.0000   0.0000   0.0000   0.0000   0.0000
     0.0000   0.0000   0.0000   0.0000   0.0000   0.0000   0.0000   0.0000
     0.0000   0.0000   0.0000   0.0000   0.0000   0.0000   0.0000   0.0000

          k = 0.0000 0.1925 0.0000 ( 17226 PWs)   bands (ev):

   -50.0632 -50.0628 -50.0247 -50.0002 -49.9749 -49.9575 -49.9080 -49.9080
   -49.4540 -49.4540 -26.6240 -26.5892 -26.5161 -26.4242 -26.3492 -26.2912
   -26.2393 -26.2250 -26.2183 -26.1974 -26.1761 -26.1756 -26.1715 -26.1614
   -26.1366 -26.1362 -26.1111 -26.1081 -26.0911 -26.0850 -26.0766 -26.0662
   -26.0220 -26.0219 -25.8202 -25.8202 -25.5718 -25.5718 -25.4913 -25.4913
    -8.8164  -8.6959  -8.4856  -8.2313  -7.9572  -7.6683  -7.4071  -7.2139
    -7.0827   0.3779   0.5965   0.9318   1.3100   1.7022   2.1046   2.3770
     2.4838   2.5304   2.6112   2.6579   2.8336   2.8860   3.0206   3.1767
     3.2510   3.4300   3.5082   3.6553   3.7983   3.8777   4.1645   4.2495
     4.3867   4.5641   4.7015   4.7901   6.4439   6.6237   6.8740   7.0303
     7.2091   7.5322   7.7557   7.8560   7.9143   7.9961   8.1727   8.2380
     8.2496   8.4532   8.5586   8.5660   8.6842   8.7252   8.8489   8.9220
     8.9267   9.0652   9.1462   9.2259   9.2262   9.2582   9.4175   9.4723
     9.6230   9.6569   9.6990   9.7825   9.8239   9.9063   9.9670  10.0244
    10.2002  10.3390  10.4350  10.6163  10.7930  10.9532  11.1428  11.5821

     occupation numbers 
     1.0000   1.0000   1.0000   1.0000   1.0000   1.0000   1.0000   1.0000
     1.0000   1.0000   1.0000   1.0000   1.0000   1.0000   1.0000   1.0000
     1.0000   1.0000   1.0000   1.0000   1.0000   1.0000   1.0000   1.0000
     1.0000   1.0000   1.0000   1.0000   1.0000   1.0000   1.0000   1.0000
     1.0000   1.0000   1.0000   1.0000   1.0000   1.0000   1.0000   1.0000
     1.0000   1.0000   1.0000   1.0000   1.0000   1.0000   1.0000   1.0000
     1.0000   1.0000   1.0000   1.0000   1.0000   1.0000   1.0000   1.0000
     1.0000   1.0000   1.0000   1.0000   1.0000   1.0000   1.0000   1.0000
     1.0000   1.0000   1.0000   1.0000   1.0000   1.0000   1.0000   1.0000
     1.0000   1.0000   1.0000   1.0000   1.0000   1.0000   1.0000   1.0000
     1.0000   1.0400   0.6741   0.1907   0.0587   0.0063   0.0000   0.0000
     0.0000   0.0000   0.0000   0.0000   0.0000   0.0000   0.0000   0.0000
     0.0000   0.0000   0.0000   0.0000   0.0000   0.0000   0.0000   0.0000
     0.0000   0.0000   0.0000   0.0000   0.0000   0.0000   0.0000   0.0000
     0.0000   0.0000   0.0000   0.0000   0.0000   0.0000   0.0000   0.0000

          k = 0.0000 0.2887 0.0000 ( 17282 PWs)   bands (ev):

   -50.0445 -50.0443 -50.0044 -49.9836 -49.9620 -49.9473 -49.8927 -49.8927
   -49.4396 -49.4396 -26.5628 -26.5435 -26.5056 -26.4710 -26.4387 -26.3958
   -26.3400 -26.3156 -26.2795 -26.2638 -26.2592 -26.2271 -26.2081 -26.2069
   -26.1811 -26.1692 -26.1490 -26.1376 -26.1226 -26.1053 -26.0926 -26.0818
   -26.0459 -26.0459 -25.8121 -25.8121 -25.6726 -25.6726 -25.5144 -25.5144
    -8.3523  -8.2688  -8.1175  -7.9400  -7.7567  -7.5649  -7.3972  -7.2868
    -7.2147   0.8431   0.9816   1.1658   1.3115   1.4747   1.6790   1.9022
     2.1377   2.3385   2.3665   2.4628   2.6133   2.6357   2.7194   2.9120
     2.9419   3.1557   3.2504   3.4312   3.4560   3.6362   3.7380   4.0008
     4.0446   4.3002   4.3739   4.4861   5.8698   6.1710   6.6190   7.0695
     7.1911   7.2598   7.6556   8.1266   8.2644   8.3813   8.4182   8.5300
     8.5809   8.7355   8.7834   8.8055   8.9812   9.0335   9.0572   9.1216
     9.1276   9.3220   9.3431   9.4598   9.5924   9.5961   9.6412   9.7152
     9.7441   9.8068   9.8491   9.8960  10.0096  10.0968  10.1016  10.5482
    10.7322  10.8933  11.0616  11.1391  11.3006  11.3830  11.4973  11.6170

     occupation numbers 
     1.0000   1.0000   1.0000   1.0000   1.0000   1.0000   1.0000   1.0000
     1.0000   1.0000   1.0000   1.0000   1.0000   1.0000   1.0000   1.0000
     1.0000   1.0000   1.0000   1.0000   1.0000   1.0000   1.0000   1.0000
     1.0000   1.0000   1.0000   1.0000   1.0000   1.0000   1.0000   1.0000
     1.0000   1.0000   1.0000   1.0000   1.0000   1.0000   1.0000   1.0000
     1.0000   1.0000   1.0000   1.0000   1.0000   1.0000   1.0000   1.0000
     1.0000   1.0000   1.0000   1.0000   1.0000   1.0000   1.0000   1.0000
     1.0000   1.0000   1.0000   1.0000   1.0000   1.0000   1.0000   1.0000
     1.0000   1.0000   1.0000   1.0000   1.0000   1.0000   1.0000   1.0000
     1.0000   1.0000   1.0000   1.0000   1.0000   1.0000   1.0000   1.0000
     1.0000   1.0000   1.0542   0.0000   0.0000   0.0000   0.0000   0.0000
     0.0000   0.0000   0.0000   0.0000   0.0000   0.0000   0.0000   0.0000
     0.0000   0.0000   0.0000   0.0000   0.0000   0.0000   0.0000   0.0000
     0.0000   0.0000   0.0000   0.0000   0.0000   0.0000   0.0000   0.0000
     0.0000   0.0000   0.0000   0.0000   0.0000   0.0000   0.0000   0.0000

          k = 0.0000 0.3849 0.0000 ( 17380 PWs)   bands (ev):

   -50.0256 -50.0255 -49.9828 -49.9666 -49.9497 -49.9383 -49.8774 -49.8774
   -49.4252 -49.4252 -26.5801 -26.5663 -26.5380 -26.5147 -26.5129 -26.4668
   -26.4516 -26.4005 -26.3677 -26.3322 -26.2862 -26.2397 -26.2377 -26.2349
   -26.2003 -26.1956 -26.1658 -26.1637 -26.1384 -26.1264 -26.1074 -26.0992
   -26.0697 -26.0695 -25.8074 -25.8074 -25.7683 -25.7683 -25.5373 -25.5373
    -7.9428  -7.8976  -7.8026  -7.6898  -7.5736  -7.4438  -7.3249  -7.2538
    -7.2122   0.6283   0.7910   1.0485   1.3145   1.4241   1.4532   1.5421
     1.6740   2.0224   2.0673   2.3461   2.5476   2.5775   2.6530   2.7738
     2.8443   2.8548   3.0075   3.0864   3.3600   3.3605   3.6659   3.8055
     3.9709   4.2259   4.2500   4.4127   5.3621   5.7589   6.2880   6.8495
     7.4117   7.5062   7.5088   7.9794   8.5167   8.8304   8.9047   8.9119
     8.9714   9.0568   9.0984   9.1973   9.2132   9.2754   9.3782   9.4591
     9.4844   9.5342   9.5668   9.5975   9.6935   9.7664   9.8256   9.9022
     9.9636   9.9768  10.0663  10.1248  10.1391  10.1678  10.3246  10.6581
    11.1140  11.2377  11.3785  11.5728  11.6594  11.6643  11.7254  11.7507

     occupation numbers 
     1.0000   1.0000   1.0000   1.0000   1.0000   1.0000   1.0000   1.0000
     1.0000   1.0000   1.0000   1.0000   1.0000   1.0000   1.0000   1.0000
     1.0000   1.0000   1.0000   1.0000   1.0000   1.0000   1.0000   1.0000
     1.0000   1.0000   1.0000   1.0000   1.0000   1.0000   1.0000   1.0000
     1.0000   1.0000   1.0000   1.0000   1.0000   1.0000   1.0000   1.0000
     1.0000   1.0000   1.0000   1.0000   1.0000   1.0000   1.0000   1.0000
     1.0000   1.0000   1.0000   1.0000   1.0000   1.0000   1.0000   1.0000
     1.0000   1.0000   1.0000   1.0000   1.0000   1.0000   1.0000   1.0000
     1.0000   1.0000   1.0000   1.0000   1.0000   1.0000   1.0000   1.0000
     1.0000   1.0000   1.0000   1.0000   1.0000   1.0000   1.0000   1.0000
     1.0023   1.0252   1.0265   0.0105   0.0000   0.0000   0.0000   0.0000
     0.0000   0.0000   0.0000   0.0000   0.0000   0.0000   0.0000   0.0000
     0.0000   0.0000   0.0000   0.0000   0.0000   0.0000   0.0000   0.0000
     0.0000   0.0000   0.0000   0.0000   0.0000   0.0000   0.0000   0.0000
     0.0000   0.0000   0.0000   0.0000   0.0000   0.0000   0.0000   0.0000

          k = 0.0000 0.4811 0.0000 ( 17374 PWs)   bands (ev):

   -50.0117 -50.0117 -49.9651 -49.9535 -49.9413 -49.9334 -49.8661 -49.8661
   -49.4146 -49.4146 -26.6637 -26.6488 -26.6004 -26.5668 -26.5468 -26.5322
   -26.4838 -26.4736 -26.3599 -26.3199 -26.2745 -26.2626 -26.2599 -26.2447
   -26.2223 -26.2114 -26.1826 -26.1753 -26.1489 -26.1423 -26.1196 -26.1127
   -26.0869 -26.0866 -25.8432 -25.8432 -25.7969 -25.7969 -25.5541 -25.5541
    -7.8628  -7.8016  -7.6843  -7.5485  -7.4108  -7.2621  -7.1308  -7.0497
    -6.9984   0.0459   0.2352   0.5411   0.8923   1.2255   1.4979   1.7205
     1.8930   2.0011   2.2852   2.3733   2.4142   2.4443   2.4940   2.5341
     2.5955   2.7473   2.8225   3.0158   3.2253   3.3178   3.6508   3.7203
     3.9816   4.2322   4.2589   4.4623   5.0231   5.5066   6.0756   6.6637
     7.2534   7.8136   7.8547   7.8930   8.4398   8.9335   9.2452   9.3026
     9.3537   9.3568   9.4116   9.4667   9.5482   9.6070   9.6083   9.6141
     9.7115   9.8128   9.8706   9.9166   9.9368   9.9817  10.0203  10.0670
    10.1122  10.1358  10.1641  10.1815  10.1944  10.2473  10.4014  10.6521
    11.0879  11.4575  11.5122  11.6302  11.6432  11.8182  12.0527  12.2215

     occupation numbers 
     1.0000   1.0000   1.0000   1.0000   1.0000   1.0000   1.0000   1.0000
     1.0000   1.0000   1.0000   1.0000   1.0000   1.0000   1.0000   1.0000
     1.0000   1.0000   1.0000   1.0000   1.0000   1.0000   1.0000   1.0000
     1.0000   1.0000   1.0000   1.0000   1.0000   1.0000   1.0000   1.0000
     1.0000   1.0000   1.0000   1.0000   1.0000   1.0000   1.0000   1.0000
     1.0000   1.0000   1.0000   1.0000   1.0000   1.0000   1.0000   1.0000
     1.0000   1.0000   1.0000   1.0000   1.0000   1.0000   1.0000   1.0000
     1.0000   1.0000   1.0000   1.0000   1.0000   1.0000   1.0000   1.0000
     1.0000   1.0000   1.0000   1.0000   1.0000   1.0000   1.0000   1.0000
     1.0000   1.0000   1.0000   1.0000   1.0000   1.0000   1.0000   1.0000
     1.0000   0.3644   0.1950   0.0940   0.0000   0.0000   0.0000   0.0000
     0.0000   0.0000   0.0000   0.0000   0.0000   0.0000   0.0000   0.0000
     0.0000   0.0000   0.0000   0.0000   0.0000   0.0000   0.0000   0.0000
     0.0000   0.0000   0.0000   0.0000   0.0000   0.0000   0.0000   0.0000
     0.0000   0.0000   0.0000   0.0000   0.0000   0.0000   0.0000   0.0000

          k = 0.0000-0.5774 0.0000 ( 17314 PWs)   bands (ev):

   -50.0066 -50.0066 -49.9578 -49.9484 -49.9386 -49.9324 -49.8620 -49.8620
   -49.4107 -49.4107 -26.6954 -26.6800 -26.6306 -26.5876 -26.5628 -26.5627
   -26.5065 -26.5018 -26.3085 -26.2989 -26.2757 -26.2710 -26.2706 -26.2680
   -26.2302 -26.2195 -26.1894 -26.1786 -26.1525 -26.1482 -26.1243 -26.1178
   -26.0932 -26.0928 -25.8667 -25.8667 -25.7963 -25.7962 -25.5602 -25.5602
    -7.8777  -7.8048  -7.6696  -7.5119  -7.3499  -7.1769  -7.0255  -6.9274
    -6.8625  -0.2169  -0.0060   0.3405   0.7583   1.1897   1.5613   1.8001
     1.9117   1.9702   2.3125   2.3132   2.3554   2.3618   2.4603   2.4816
     2.5871   2.7047   2.8091   2.9854   3.1945   3.3014   3.6490   3.6960
     3.9943   4.2342   4.2849   4.4982   4.9047   5.4284   6.0069   6.6012
     7.1964   7.7845   8.0031   8.0272   8.4115   8.9257   9.2831   9.4476
     9.4927   9.4962   9.5387   9.6264   9.6522   9.6826   9.6827   9.7491
     9.8696   9.8779  10.0602  10.0647  10.0914  10.0947  10.1110  10.1136
    10.1603  10.1699  10.1844  10.2177  10.2203  10.3624  10.4746  10.6073
    11.0409  11.4344  11.5358  11.6156  11.7307  11.9989  12.2055  12.3006

     occupation numbers 
     1.0000   1.0000   1.0000   1.0000   1.0000   1.0000   1.0000   1.0000
     1.0000   1.0000   1.0000   1.0000   1.0000   1.0000   1.0000   1.0000
     1.0000   1.0000   1.0000   1.0000   1.0000   1.0000   1.0000   1.0000
     1.0000   1.0000   1.0000   1.0000   1.0000   1.0000   1.0000   1.0000
     1.0000   1.0000   1.0000   1.0000   1.0000   1.0000   1.0000   1.0000
     1.0000   1.0000   1.0000   1.0000   1.0000   1.0000   1.0000   1.0000
     1.0000   1.0000   1.0000   1.0000   1.0000   1.0000   1.0000   1.0000
     1.0000   1.0000   1.0000   1.0000   1.0000   1.0000   1.0000   1.0000
     1.0000   1.0000   1.0000   1.0000   1.0000   1.0000   1.0000   1.0000
     1.0000   1.0000   1.0000   1.0000   1.0000   1.0000   1.0000   1.0000
     1.0000   0.5150   0.0050   0.0022   0.0000   0.0000   0.0000   0.0000
     0.0000   0.0000   0.0000   0.0000   0.0000   0.0000   0.0000   0.0000
     0.0000   0.0000   0.0000   0.0000   0.0000   0.0000   0.0000   0.0000
     0.0000   0.0000   0.0000   0.0000   0.0000   0.0000   0.0000   0.0000
     0.0000   0.0000   0.0000   0.0000   0.0000   0.0000   0.0000   0.0000

          k = 0.0833 0.1443 0.0000 ( 17259 PWs)   bands (ev):

   -50.0676 -50.0671 -50.0293 -50.0040 -49.9780 -49.9600 -49.9115 -49.9115
   -49.4573 -49.4573 -26.6382 -26.6005 -26.5220 -26.4210 -26.3341 -26.2680
   -26.2126 -26.2115 -26.2020 -26.1820 -26.1722 -26.1627 -26.1531 -26.1488
   -26.1267 -26.1154 -26.1033 -26.0883 -26.0809 -26.0749 -26.0732 -26.0647
   -26.0186 -26.0185 -25.8224 -25.8224 -25.5465 -25.5465 -25.4874 -25.4874
    -8.9219  -8.7938  -8.5711  -8.3002  -8.0056  -7.6937  -7.4086  -7.1933
    -7.0462   0.2511   0.4953   0.8737   1.3110   1.7692   2.2284   2.3770
     2.4759   2.5873   2.6461   2.6711   2.8642   2.9410   3.0888   3.2531
     3.3251   3.5012   3.7250   3.7453   3.9028   4.1021   4.2267   4.3326
     4.5622   4.5961   4.6395   4.8628   6.7522   6.7728   7.0730   7.1822
     7.2367   7.4749   7.5828   7.6691   7.7965   8.0332   8.0451   8.1055
     8.2921   8.3103   8.4040   8.5435   8.6459   8.6772   8.8570   8.8947
     8.9108   9.0378   9.0934   9.2098   9.2127   9.2644   9.3928   9.4563
     9.4923   9.5352   9.5397   9.6024   9.6379   9.8254   9.9114  10.0030
    10.0354  10.2115  10.3588  10.5062  10.7400  10.8660  11.3064  11.4008

     occupation numbers 
     1.0000   1.0000   1.0000   1.0000   1.0000   1.0000   1.0000   1.0000
     1.0000   1.0000   1.0000   1.0000   1.0000   1.0000   1.0000   1.0000
     1.0000   1.0000   1.0000   1.0000   1.0000   1.0000   1.0000   1.0000
     1.0000   1.0000   1.0000   1.0000   1.0000   1.0000   1.0000   1.0000
     1.0000   1.0000   1.0000   1.0000   1.0000   1.0000   1.0000   1.0000
     1.0000   1.0000   1.0000   1.0000   1.0000   1.0000   1.0000   1.0000
     1.0000   1.0000   1.0000   1.0000   1.0000   1.0000   1.0000   1.0000
     1.0000   1.0000   1.0000   1.0000   1.0000   1.0000   1.0000   1.0000
     1.0000   1.0000   1.0000   1.0000   1.0000   1.0000   1.0000   1.0000
     1.0000   1.0000   1.0000   1.0000   1.0000   1.0000   1.0000   1.0000
     1.0000   1.0129   1.0734   1.0291   0.4508   0.0018   0.0012   0.0001
     0.0000   0.0000   0.0000   0.0000   0.0000   0.0000   0.0000   0.0000
     0.0000   0.0000   0.0000   0.0000   0.0000   0.0000   0.0000   0.0000
     0.0000   0.0000   0.0000   0.0000   0.0000   0.0000   0.0000   0.0000
     0.0000   0.0000   0.0000   0.0000   0.0000   0.0000   0.0000   0.0000

          k = 0.0833 0.2406 0.0000 ( 17323 PWs)   bands (ev):

   -50.0514 -50.0511 -50.0120 -49.9897 -49.9667 -49.9509 -49.8983 -49.8983
   -49.4449 -49.4449 -26.5842 -26.5592 -26.5040 -26.4423 -26.3968 -26.3517
   -26.2982 -26.2751 -26.2608 -26.2379 -26.2302 -26.2206 -26.1979 -26.1885
   -26.1677 -26.1489 -26.1344 -26.1269 -26.1169 -26.1085 -26.0952 -26.0766
   -26.0442 -26.0439 -25.8145 -25.8145 -25.6310 -25.6310 -25.5112 -25.5112
    -8.5205  -8.4223  -8.2480  -8.0418  -7.8260  -7.6014  -7.4047  -7.2699
    -7.1808   0.7359   0.8720   1.0780   1.3065   1.5526   1.8209   2.1008
     2.3699   2.4241   2.5651   2.6629   2.7154   2.7930   2.8612   2.9551
     3.0198   3.2184   3.3382   3.4634   3.6558   3.7143   3.7927   3.9690
     4.0177   4.1673   4.2247   4.3515   6.4884   6.6239   6.8913   7.0870
     7.2368   7.4829   7.5518   7.8229   7.8903   8.0327   8.2529   8.4221
     8.5471   8.6027   8.6634   8.7553   8.8266   8.8984   8.9925   9.1095
     9.2720   9.3284   9.3672   9.4672   9.4910   9.5326   9.6011   9.6550
     9.6973   9.7167   9.7886   9.8868   9.9350   9.9879  10.0445  10.2075
    10.3375  10.4944  10.7406  11.0096  11.2210  11.2945  11.3675  11.5416

     occupation numbers 
     1.0000   1.0000   1.0000   1.0000   1.0000   1.0000   1.0000   1.0000
     1.0000   1.0000   1.0000   1.0000   1.0000   1.0000   1.0000   1.0000
     1.0000   1.0000   1.0000   1.0000   1.0000   1.0000   1.0000   1.0000
     1.0000   1.0000   1.0000   1.0000   1.0000   1.0000   1.0000   1.0000
     1.0000   1.0000   1.0000   1.0000   1.0000   1.0000   1.0000   1.0000
     1.0000   1.0000   1.0000   1.0000   1.0000   1.0000   1.0000   1.0000
     1.0000   1.0000   1.0000   1.0000   1.0000   1.0000   1.0000   1.0000
     1.0000   1.0000   1.0000   1.0000   1.0000   1.0000   1.0000   1.0000
     1.0000   1.0000   1.0000   1.0000   1.0000   1.0000   1.0000   1.0000
     1.0000   1.0000   1.0000   1.0000   1.0000   1.0000   1.0000   1.0000
     1.0000   1.0155   1.0531   0.3209   0.0995   0.0018   0.0000   0.0000
     0.0000   0.0000   0.0000   0.0000   0.0000   0.0000   0.0000   0.0000
     0.0000   0.0000   0.0000   0.0000   0.0000   0.0000   0.0000   0.0000
     0.0000   0.0000   0.0000   0.0000   0.0000   0.0000   0.0000   0.0000
     0.0000   0.0000   0.0000   0.0000   0.0000   0.0000   0.0000   0.0000

          k = 0.0833 0.3368 0.0000 ( 17369 PWs)   bands (ev):

   -50.0325 -50.0324 -49.9909 -49.9729 -49.9541 -49.9414 -49.8830 -49.8830
   -49.4305 -49.4305 -26.5360 -26.5253 -26.5234 -26.5044 -26.4805 -26.4530
   -26.4062 -26.3604 -26.3297 -26.3131 -26.2885 -26.2394 -26.2292 -26.2266
   -26.1915 -26.1864 -26.1711 -26.1526 -26.1442 -26.1254 -26.1136 -26.0914
   -26.0725 -26.0715 -25.8075 -25.8075 -25.7255 -25.7255 -25.5386 -25.5386
    -8.0535  -7.9971  -7.8875  -7.7613  -7.6353  -7.5008  -7.3820  -7.3130
    -7.2735   0.9286   1.0641   1.2779   1.3885   1.4400   1.4971   1.6132
     1.7451   2.0829   2.0902   2.3998   2.6216   2.6772   2.7262   2.8662
     2.9487   3.0226   3.1275   3.2071   3.3410   3.3815   3.5570   3.7002
     3.7687   3.8946   3.9416   4.1164   6.0465   6.2816   6.6910   7.1425
     7.3265   7.3677   7.6831   8.0314   8.1586   8.2567   8.4899   8.5943
     8.8397   8.8621   9.0717   9.1413   9.1972   9.2358   9.3049   9.3207
     9.4343   9.4812   9.5042   9.6514   9.6811   9.7345   9.8451   9.8640
     9.8973   9.9740  10.0323  10.0846  10.1243  10.1407  10.2603  10.5291
    10.8913  10.9784  11.1327  11.2984  11.3506  11.6657  11.7083  11.7645

     occupation numbers 
     1.0000   1.0000   1.0000   1.0000   1.0000   1.0000   1.0000   1.0000
     1.0000   1.0000   1.0000   1.0000   1.0000   1.0000   1.0000   1.0000
     1.0000   1.0000   1.0000   1.0000   1.0000   1.0000   1.0000   1.0000
     1.0000   1.0000   1.0000   1.0000   1.0000   1.0000   1.0000   1.0000
     1.0000   1.0000   1.0000   1.0000   1.0000   1.0000   1.0000   1.0000
     1.0000   1.0000   1.0000   1.0000   1.0000   1.0000   1.0000   1.0000
     1.0000   1.0000   1.0000   1.0000   1.0000   1.0000   1.0000   1.0000
     1.0000   1.0000   1.0000   1.0000   1.0000   1.0000   1.0000   1.0000
     1.0000   1.0000   1.0000   1.0000   1.0000   1.0000   1.0000   1.0000
     1.0000   1.0000   1.0000   1.0000   1.0000   1.0000   1.0000   1.0000
     1.0001   1.0005   0.9938   0.0019   0.0000   0.0000   0.0000   0.0000
     0.0000   0.0000   0.0000   0.0000   0.0000   0.0000   0.0000   0.0000
     0.0000   0.0000   0.0000   0.0000   0.0000   0.0000   0.0000   0.0000
     0.0000   0.0000   0.0000   0.0000   0.0000   0.0000   0.0000   0.0000
     0.0000   0.0000   0.0000   0.0000   0.0000   0.0000   0.0000   0.0000

          k = 0.0833 0.4330 0.0000 ( 17416 PWs)   bands (ev):

   -50.0162 -50.0161 -49.9710 -49.9578 -49.9438 -49.9347 -49.8697 -49.8697
   -49.4180 -49.4180 -26.6181 -26.6044 -26.5597 -26.5403 -26.5226 -26.4969
   -26.4626 -26.4369 -26.3789 -26.3339 -26.2849 -26.2650 -26.2626 -26.2330
   -26.2303 -26.2080 -26.1882 -26.1688 -26.1607 -26.1374 -26.1307 -26.1100
   -26.0962 -26.0940 -25.8139 -25.8139 -25.7932 -25.7932 -25.5623 -25.5623
    -7.8071  -7.7640  -7.6738  -7.5697  -7.4660  -7.3507  -7.2453  -7.1860
    -7.1551   0.4192   0.5796   0.8329   1.0957   1.2946   1.4561   1.6400
     1.8387   2.0424   2.2075   2.3785   2.4357   2.5332   2.6375   2.6697
     2.7339   2.7984   2.8807   2.9934   3.1967   3.2410   3.4314   3.6334
     3.6523   3.7808   3.8565   4.0962   5.7295   6.0024   6.4588   6.9707
     7.4969   7.6687   7.6702   8.0347   8.5473   8.6519   8.7904   8.9425
     9.0529   9.1880   9.2568   9.3838   9.4258   9.4907   9.5743   9.6504
     9.7094   9.7407   9.8167   9.8596   9.9027   9.9427   9.9852  10.0423
    10.0633  10.1029  10.1551  10.1837  10.2135  10.2589  10.4214  10.6602
    10.9796  11.2966  11.4571  11.5981  11.6508  11.7453  11.8923  11.9974

     occupation numbers 
     1.0000   1.0000   1.0000   1.0000   1.0000   1.0000   1.0000   1.0000
     1.0000   1.0000   1.0000   1.0000   1.0000   1.0000   1.0000   1.0000
     1.0000   1.0000   1.0000   1.0000   1.0000   1.0000   1.0000   1.0000
     1.0000   1.0000   1.0000   1.0000   1.0000   1.0000   1.0000   1.0000
     1.0000   1.0000   1.0000   1.0000   1.0000   1.0000   1.0000   1.0000
     1.0000   1.0000   1.0000   1.0000   1.0000   1.0000   1.0000   1.0000
     1.0000   1.0000   1.0000   1.0000   1.0000   1.0000   1.0000   1.0000
     1.0000   1.0000   1.0000   1.0000   1.0000   1.0000   1.0000   1.0000
     1.0000   1.0000   1.0000   1.0000   1.0000   1.0000   1.0000   1.0000
     1.0000   1.0000   1.0000   1.0000   1.0000   1.0000   1.0000   1.0000
     1.0209   1.0301   1.0269   0.0017   0.0000   0.0000   0.0000   0.0000
     0.0000   0.0000   0.0000   0.0000   0.0000   0.0000   0.0000   0.0000
     0.0000   0.0000   0.0000   0.0000   0.0000   0.0000   0.0000   0.0000
     0.0000   0.0000   0.0000   0.0000   0.0000   0.0000   0.0000   0.0000
     0.0000   0.0000   0.0000   0.0000   0.0000   0.0000   0.0000   0.0000

          k = 0.0833-0.6255 0.0000 ( 17393 PWs)   bands (ev):

   -50.0067 -50.0067 -49.9579 -49.9484 -49.9386 -49.9324 -49.8620 -49.8620
   -49.4107 -49.4107 -26.6753 -26.6605 -26.6121 -26.5725 -26.5500 -26.5463
   -26.4921 -26.4859 -26.3312 -26.3056 -26.2897 -26.2867 -26.2730 -26.2591
   -26.2381 -26.2300 -26.1913 -26.1854 -26.1641 -26.1485 -26.1342 -26.1253
   -26.1100 -26.1072 -25.8531 -25.8531 -25.7956 -25.7956 -25.5759 -25.5759
    -7.8166  -7.7525  -7.6311  -7.4911  -7.3500  -7.1992  -7.0679  -6.9878
    -6.9370  -0.0377   0.1541   0.4695   0.8452   1.2265   1.5538   1.7865
     1.9189   1.9884   2.3292   2.3470   2.4045   2.4257   2.4786   2.5174
     2.6045   2.6892   2.8125   2.9160   3.1596   3.1722   3.4094   3.5738
     3.6552   3.7479   3.8364   4.1336   5.5843   5.8672   6.3378   6.8606
     7.4001   7.9197   7.9351   7.9687   8.4991   8.9534   9.1871   9.2591
     9.3359   9.4170   9.4620   9.5099   9.5486   9.6429   9.7673   9.8162
     9.8772   9.9506   9.9709  10.0210  10.0430  10.0669  10.0905  10.1281
    10.1566  10.1616  10.1854  10.1906  10.2072  10.3472  10.5223  10.6816
    10.9654  11.4006  11.4773  11.5879  11.7806  11.8915  12.1067  12.2858

     occupation numbers 
     1.0000   1.0000   1.0000   1.0000   1.0000   1.0000   1.0000   1.0000
     1.0000   1.0000   1.0000   1.0000   1.0000   1.0000   1.0000   1.0000
     1.0000   1.0000   1.0000   1.0000   1.0000   1.0000   1.0000   1.0000
     1.0000   1.0000   1.0000   1.0000   1.0000   1.0000   1.0000   1.0000
     1.0000   1.0000   1.0000   1.0000   1.0000   1.0000   1.0000   1.0000
     1.0000   1.0000   1.0000   1.0000   1.0000   1.0000   1.0000   1.0000
     1.0000   1.0000   1.0000   1.0000   1.0000   1.0000   1.0000   1.0000
     1.0000   1.0000   1.0000   1.0000   1.0000   1.0000   1.0000   1.0000
     1.0000   1.0000   1.0000   1.0000   1.0000   1.0000   1.0000   1.0000
     1.0000   1.0000   1.0000   1.0000   1.0000   1.0000   1.0000   1.0000
     1.0016   0.0518   0.0355   0.0143   0.0000   0.0000   0.0000   0.0000
     0.0000   0.0000   0.0000   0.0000   0.0000   0.0000   0.0000   0.0000
     0.0000   0.0000   0.0000   0.0000   0.0000   0.0000   0.0000   0.0000
     0.0000   0.0000   0.0000   0.0000   0.0000   0.0000   0.0000   0.0000
     0.0000   0.0000   0.0000   0.0000   0.0000   0.0000   0.0000   0.0000

          k = 0.1667 0.2887 0.0000 ( 17381 PWs)   bands (ev):

   -50.0351 -50.0350 -49.9939 -49.9752 -49.9558 -49.9426 -49.8851 -49.8851
   -49.4324 -49.4324 -26.5306 -26.5265 -26.5035 -26.4831 -26.4657 -26.4343
   -26.3914 -26.3347 -26.3092 -26.3060 -26.2979 -26.2450 -26.2224 -26.2175
   -26.1889 -26.1758 -26.1622 -26.1528 -26.1485 -26.1478 -26.1236 -26.0935
   -26.0807 -26.0755 -25.8077 -25.8077 -25.7026 -25.7026 -25.5461 -25.5461
    -8.0984  -8.0355  -7.9171  -7.7829  -7.6519  -7.5166  -7.4011  -7.3372
    -7.3024   1.1927   1.2021   1.2450   1.2803   1.3922   1.5390   1.7083
     1.8975   2.1634   2.1814   2.4596   2.7163   2.7880   2.8445   2.9532
     3.0442   3.0807   3.1863   3.2172   3.2961   3.3322   3.3354   3.4228
     3.6633   3.7096   3.7482   3.7767   6.7740   6.7864   7.0496   7.1038
     7.2885   7.3538   7.6367   7.6703   7.9960   8.1605   8.2929   8.3924
     8.6403   8.8589   9.0356   9.1027   9.1476   9.1897   9.3431   9.3459
     9.4365   9.5355   9.5452   9.6254   9.6790   9.7310   9.8700   9.8964
     9.8970  10.0002  10.0666  10.1066  10.1433  10.3518  10.5008  10.5307
    10.5530  10.6013  10.7119  10.9291  11.2131  11.5238  11.5901  12.1051

     occupation numbers 
     1.0000   1.0000   1.0000   1.0000   1.0000   1.0000   1.0000   1.0000
     1.0000   1.0000   1.0000   1.0000   1.0000   1.0000   1.0000   1.0000
     1.0000   1.0000   1.0000   1.0000   1.0000   1.0000   1.0000   1.0000
     1.0000   1.0000   1.0000   1.0000   1.0000   1.0000   1.0000   1.0000
     1.0000   1.0000   1.0000   1.0000   1.0000   1.0000   1.0000   1.0000
     1.0000   1.0000   1.0000   1.0000   1.0000   1.0000   1.0000   1.0000
     1.0000   1.0000   1.0000   1.0000   1.0000   1.0000   1.0000   1.0000
     1.0000   1.0000   1.0000   1.0000   1.0000   1.0000   1.0000   1.0000
     1.0000   1.0000   1.0000   1.0000   1.0000   1.0000   1.0000   1.0000
     1.0000   1.0000   1.0000   1.0000   1.0000   1.0000   1.0000   1.0000
     1.0000   1.0003   1.0754   1.0266   0.0063   0.0000   0.0000   0.0000
     0.0000   0.0000   0.0000   0.0000   0.0000   0.0000   0.0000   0.0000
     0.0000   0.0000   0.0000   0.0000   0.0000   0.0000   0.0000   0.0000
     0.0000   0.0000   0.0000   0.0000   0.0000   0.0000   0.0000   0.0000
     0.0000   0.0000   0.0000   0.0000   0.0000   0.0000   0.0000   0.0000

          k = 0.1667 0.3849 0.0000 ( 17421 PWs)   bands (ev):

   -50.0187 -50.0187 -49.9743 -49.9602 -49.9453 -49.9355 -49.8718 -49.8718
   -49.4199 -49.4199 -26.5609 -26.5522 -26.5237 -26.5167 -26.4957 -26.4788
   -26.4584 -26.3972 -26.3722 -26.3497 -26.3091 -26.2639 -26.2562 -26.2450
   -26.2253 -26.2105 -26.2007 -26.1844 -26.1688 -26.1588 -26.1491 -26.1270
   -26.1117 -26.0967 -25.8023 -25.8023 -25.7686 -25.7686 -25.5844 -25.5844
    -7.6979  -7.6758  -7.6183  -7.5548  -7.4987  -7.4355  -7.3715  -7.3209
    -7.3188   0.9133   1.0282   1.1944   1.2450   1.2948   1.4149   1.5726
     1.7584   2.1054   2.1773   2.4777   2.5683   2.6444   2.7174   2.7684
     2.8221   2.8481   2.9514   3.0094   3.0842   3.1123   3.1365   3.1445
     3.1916   3.3089   3.4786   3.6684   6.6259   6.7388   7.0487   7.3500
     7.4336   7.5540   7.7700   7.9409   8.0567   8.3282   8.4940   8.7089
     8.7662   8.9961   9.1732   9.2823   9.4343   9.4994   9.5512   9.6042
     9.6455   9.6711   9.7521   9.8015   9.8795   9.9941  10.0581  10.1107
    10.1371  10.1431  10.1527  10.1735  10.4960  10.6188  10.6424  10.7562
    10.8731  11.0375  11.0968  11.2352  11.4231  11.7118  11.7625  11.9259

     occupation numbers 
     1.0000   1.0000   1.0000   1.0000   1.0000   1.0000   1.0000   1.0000
     1.0000   1.0000   1.0000   1.0000   1.0000   1.0000   1.0000   1.0000
     1.0000   1.0000   1.0000   1.0000   1.0000   1.0000   1.0000   1.0000
     1.0000   1.0000   1.0000   1.0000   1.0000   1.0000   1.0000   1.0000
     1.0000   1.0000   1.0000   1.0000   1.0000   1.0000   1.0000   1.0000
     1.0000   1.0000   1.0000   1.0000   1.0000   1.0000   1.0000   1.0000
     1.0000   1.0000   1.0000   1.0000   1.0000   1.0000   1.0000   1.0000
     1.0000   1.0000   1.0000   1.0000   1.0000   1.0000   1.0000   1.0000
     1.0000   1.0000   1.0000   1.0000   1.0000   1.0000   1.0000   1.0000
     1.0000   1.0000   1.0000   1.0000   1.0000   1.0000   1.0000   1.0003
     1.0044   1.0547   0.5953   0.0306   0.0008   0.0000   0.0000   0.0000
     0.0000   0.0000   0.0000   0.0000   0.0000   0.0000   0.0000   0.0000
     0.0000   0.0000   0.0000   0.0000   0.0000   0.0000   0.0000   0.0000
     0.0000   0.0000   0.0000   0.0000   0.0000   0.0000   0.0000   0.0000
     0.0000   0.0000   0.0000   0.0000   0.0000   0.0000   0.0000   0.0000

          k = 0.1667-0.6736 0.0000 ( 17428 PWs)   bands (ev):

   -50.0067 -50.0067 -49.9580 -49.9485 -49.9385 -49.9322 -49.8620 -49.8620
   -49.4108 -49.4108 -26.6233 -26.6107 -26.5671 -26.5409 -26.5238 -26.5110
   -26.4604 -26.4489 -26.3708 -26.3490 -26.3244 -26.2935 -26.2862 -26.2625
   -26.2606 -26.2306 -26.2186 -26.1957 -26.1772 -26.1695 -26.1658 -26.1477
   -26.1319 -26.1183 -25.8196 -25.8196 -25.7941 -25.7941 -25.6135 -25.6135
    -7.6475  -7.6089  -7.5275  -7.4376  -7.3544  -7.2641  -7.1810  -7.1382
    -7.1258   0.4299   0.5686   0.7942   1.0448   1.2851   1.5149   1.7393
     1.9329   2.0655   2.3361   2.3524   2.4303   2.5365   2.5998   2.6884
     2.7161   2.7551   2.7924   2.8080   2.8480   2.9107   2.9398   2.9958
     3.0280   3.1647   3.4479   3.7138   6.4596   6.6045   6.9463   7.3724
     7.7270   7.7593   7.8770   8.3212   8.4593   8.6228   8.7789   8.8916
     9.1013   9.1544   9.2794   9.4189   9.5009   9.5743   9.6495   9.7307
     9.8103   9.8462   9.9041   9.9597   9.9978  10.0524  10.1029  10.1492
    10.1678  10.1822  10.2674  10.2675  10.5950  10.6127  10.7363  10.9214
    11.0246  11.1377  11.3940  11.6000  11.6712  11.7739  11.9131  12.0877

     occupation numbers 
     1.0000   1.0000   1.0000   1.0000   1.0000   1.0000   1.0000   1.0000
     1.0000   1.0000   1.0000   1.0000   1.0000   1.0000   1.0000   1.0000
     1.0000   1.0000   1.0000   1.0000   1.0000   1.0000   1.0000   1.0000
     1.0000   1.0000   1.0000   1.0000   1.0000   1.0000   1.0000   1.0000
     1.0000   1.0000   1.0000   1.0000   1.0000   1.0000   1.0000   1.0000
     1.0000   1.0000   1.0000   1.0000   1.0000   1.0000   1.0000   1.0000
     1.0000   1.0000   1.0000   1.0000   1.0000   1.0000   1.0000   1.0000
     1.0000   1.0000   1.0000   1.0000   1.0000   1.0000   1.0000   1.0000
     1.0000   1.0000   1.0000   1.0000   1.0000   1.0000   1.0000   1.0000
     1.0000   1.0000   1.0000   1.0000   1.0000   1.0000   1.0000   1.0006
     0.8226   0.6541   0.1298   0.0000   0.0000   0.0000   0.0000   0.0000
     0.0000   0.0000   0.0000   0.0000   0.0000   0.0000   0.0000   0.0000
     0.0000   0.0000   0.0000   0.0000   0.0000   0.0000   0.0000   0.0000
     0.0000   0.0000   0.0000   0.0000   0.0000   0.0000   0.0000   0.0000
     0.0000   0.0000   0.0000   0.0000   0.0000   0.0000   0.0000   0.0000

          k = 0.1667-0.5774 0.0000 ( 17399 PWs)   bands (ev):

   -50.0023 -50.0023 -49.9509 -49.9438 -49.9364 -49.9321 -49.8584 -49.8584
   -49.4074 -49.4074 -26.6473 -26.6335 -26.5871 -26.5484 -26.5294 -26.5267
   -26.4734 -26.4683 -26.3531 -26.3480 -26.3264 -26.3231 -26.3008 -26.2644
   -26.2554 -26.2423 -26.2150 -26.2110 -26.1768 -26.1765 -26.1711 -26.1498
   -26.1366 -26.1337 -25.8357 -25.8357 -25.7933 -25.7933 -25.6243 -25.6243
    -7.6709  -7.6206  -7.5210  -7.4090  -7.3008  -7.1850  -7.0837  -7.0297
    -7.0016   0.2201   0.3803   0.6481   0.9691   1.3007   1.5971   1.8111
     1.9316   2.0030   2.3514   2.3915   2.4288   2.4750   2.5267   2.5519
     2.6323   2.6519   2.7477   2.7787   2.8479   2.8703   2.8741   2.9509
     3.0078   3.1561   3.4575   3.7468   6.4049   6.5562   6.9040   7.3374
     7.7934   7.8973   7.9166   8.2946   8.7392   9.0374   9.0741   9.1310
     9.1462   9.3345   9.3508   9.4391   9.4770   9.4993   9.5860   9.7008
     9.8270   9.9213   9.9270   9.9708   9.9943  10.0045  10.0910  10.1483
    10.1719  10.1744  10.2946  10.2948  10.5742  10.6235  10.7839  10.9849
    11.0445  11.1580  11.4932  11.5153  11.7145  11.8623  12.0156  12.2070

     occupation numbers 
     1.0000   1.0000   1.0000   1.0000   1.0000   1.0000   1.0000   1.0000
     1.0000   1.0000   1.0000   1.0000   1.0000   1.0000   1.0000   1.0000
     1.0000   1.0000   1.0000   1.0000   1.0000   1.0000   1.0000   1.0000
     1.0000   1.0000   1.0000   1.0000   1.0000   1.0000   1.0000   1.0000
     1.0000   1.0000   1.0000   1.0000   1.0000   1.0000   1.0000   1.0000
     1.0000   1.0000   1.0000   1.0000   1.0000   1.0000   1.0000   1.0000
     1.0000   1.0000   1.0000   1.0000   1.0000   1.0000   1.0000   1.0000
     1.0000   1.0000   1.0000   1.0000   1.0000   1.0000   1.0000   1.0000
     1.0000   1.0000   1.0000   1.0000   1.0000   1.0000   1.0000   1.0000
     1.0000   1.0000   1.0000   1.0000   1.0000   1.0000   1.0000   1.0002
     0.4669   0.0857   0.0557   0.0000   0.0000   0.0000   0.0000   0.0000
     0.0000   0.0000   0.0000   0.0000   0.0000   0.0000   0.0000   0.0000
     0.0000   0.0000   0.0000   0.0000   0.0000   0.0000   0.0000   0.0000
     0.0000   0.0000   0.0000   0.0000   0.0000   0.0000   0.0000   0.0000
     0.0000   0.0000   0.0000   0.0000   0.0000   0.0000   0.0000   0.0000

          k = 0.2500-0.7217 0.0000 ( 17473 PWs)   bands (ev):

   -50.0067 -50.0067 -49.9581 -49.9485 -49.9385 -49.9322 -49.8620 -49.8620
   -49.4108 -49.4108 -26.5756 -26.5707 -26.5493 -26.5290 -26.5218 -26.4839
   -26.4422 -26.4126 -26.4035 -26.3901 -26.3444 -26.2928 -26.2821 -26.2758
   -26.2582 -26.2547 -26.2271 -26.2135 -26.1995 -26.1860 -26.1740 -26.1527
   -26.1367 -26.1196 -25.7987 -25.7987 -25.7915 -25.7915 -25.6383 -25.6383
    -7.4440  -7.4426  -7.4158  -7.3989  -7.3916  -7.3787  -7.3592  -7.2395
    -7.2395   0.8796   0.9007   0.9760   1.0974   1.2641   1.4700   1.7010
     1.9443   2.1982   2.3527   2.3711   2.4168   2.4692   2.5120   2.5346
     2.5733   2.6062   2.6935   2.7027   2.7712   2.7875   2.8963   3.0060
     3.0636   3.1652   3.1979   3.2314   7.1658   7.1737   7.4178   7.4630
     7.6013   7.6712   7.9148   7.9802   8.2926   8.3746   8.6463   8.8347
     9.0341   9.0752   9.2190   9.4295   9.5451   9.5559   9.6448   9.6775
     9.6816   9.7678   9.8050   9.8657   9.9845  10.0735  10.1165  10.1369
    10.1585  10.1810  10.2714  10.2715  10.8201  10.9632  10.9704  11.1238
    11.1647  11.3649  11.3728  11.5311  11.5670  11.6967  11.7516  11.7977

     occupation numbers 
     1.0000   1.0000   1.0000   1.0000   1.0000   1.0000   1.0000   1.0000
     1.0000   1.0000   1.0000   1.0000   1.0000   1.0000   1.0000   1.0000
     1.0000   1.0000   1.0000   1.0000   1.0000   1.0000   1.0000   1.0000
     1.0000   1.0000   1.0000   1.0000   1.0000   1.0000   1.0000   1.0000
     1.0000   1.0000   1.0000   1.0000   1.0000   1.0000   1.0000   1.0000
     1.0000   1.0000   1.0000   1.0000   1.0000   1.0000   1.0000   1.0000
     1.0000   1.0000   1.0000   1.0000   1.0000   1.0000   1.0000   1.0000
     1.0000   1.0000   1.0000   1.0000   1.0000   1.0000   1.0000   1.0000
     1.0000   1.0000   1.0000   1.0000   1.0000   1.0000   1.0000   1.0000
     1.0000   1.0000   1.0000   1.0000   1.0000   1.0000   1.0028   1.0096
     1.0814   1.0245   0.0581   0.0102   0.0000   0.0000   0.0000   0.0000
     0.0000   0.0000   0.0000   0.0000   0.0000   0.0000   0.0000   0.0000
     0.0000   0.0000   0.0000   0.0000   0.0000   0.0000   0.0000   0.0000
     0.0000   0.0000   0.0000   0.0000   0.0000   0.0000   0.0000   0.0000
     0.0000   0.0000   0.0000   0.0000   0.0000   0.0000   0.0000   0.0000

          k = 0.2500-0.6255 0.0000 ( 17403 PWs)   bands (ev):

   -49.9998 -49.9998 -49.9462 -49.9409 -49.9354 -49.9327 -49.8563 -49.8563
   -49.4055 -49.4055 -26.5905 -26.5797 -26.5427 -26.5218 -26.5138 -26.4815
   -26.4522 -26.4481 -26.4090 -26.3929 -26.3844 -26.3432 -26.3380 -26.3070
   -26.2696 -26.2600 -26.2403 -26.2220 -26.2083 -26.1937 -26.1726 -26.1606
   -26.1530 -26.1455 -25.8020 -25.8020 -25.7913 -25.7913 -25.6780 -25.6780
    -7.4660  -7.4449  -7.3901  -7.3330  -7.2873  -7.2367  -7.1860  -7.1308
    -7.1304   0.7246   0.8170   0.9746   1.1552   1.3439   1.5382   1.7242
     1.8863   2.0445   2.1298   2.2710   2.2926   2.3363   2.3825   2.4212
     2.4760   2.5597   2.5714   2.6434   2.6874   2.7572   2.7873   2.8418
     2.8841   3.0033   3.1521   3.2760   7.2143   7.2360   7.5198   7.7150
     7.7697   7.9193   8.2904   8.3751   8.5548   8.6927   8.8301   9.0109
     9.1158   9.1892   9.2498   9.3369   9.3838   9.4142   9.4785   9.5902
     9.6429   9.7677   9.7946   9.8830  10.0017  10.0143  10.0815  10.1152
    10.1249  10.1641  10.2698  10.2700  11.0204  11.0527  11.1303  11.2046
    11.2900  11.4446  11.4507  11.6054  11.6830  11.7500  11.8520  11.9473

     occupation numbers 
     1.0000   1.0000   1.0000   1.0000   1.0000   1.0000   1.0000   1.0000
     1.0000   1.0000   1.0000   1.0000   1.0000   1.0000   1.0000   1.0000
     1.0000   1.0000   1.0000   1.0000   1.0000   1.0000   1.0000   1.0000
     1.0000   1.0000   1.0000   1.0000   1.0000   1.0000   1.0000   1.0000
     1.0000   1.0000   1.0000   1.0000   1.0000   1.0000   1.0000   1.0000
     1.0000   1.0000   1.0000   1.0000   1.0000   1.0000   1.0000   1.0000
     1.0000   1.0000   1.0000   1.0000   1.0000   1.0000   1.0000   1.0000
     1.0000   1.0000   1.0000   1.0000   1.0000   1.0000   1.0000   1.0000
     1.0000   1.0000   1.0000   1.0000   1.0000   1.0000   1.0000   1.0000
     1.0000   1.0000   1.0000   1.0000   1.0000   1.0000   1.0325   0.8779
     0.5968   0.0522   0.0000   0.0000   0.0000   0.0000   0.0000   0.0000
     0.0000   0.0000   0.0000   0.0000   0.0000   0.0000   0.0000   0.0000
     0.0000   0.0000   0.0000   0.0000   0.0000   0.0000   0.0000   0.0000
     0.0000   0.0000   0.0000   0.0000   0.0000   0.0000   0.0000   0.0000
     0.0000   0.0000   0.0000   0.0000   0.0000   0.0000   0.0000   0.0000

          k = 0.3333-0.5774 0.0000 ( 17397 PWs)   bands (ev):

   -49.9973 -49.9973 -49.9382 -49.9382 -49.9354 -49.9354 -49.8543 -49.8543
   -49.4035 -49.4035 -26.5295 -26.5293 -26.5293 -26.5185 -26.5028 -26.5028
   -26.4766 -26.4366 -26.4366 -26.3913 -26.3913 -26.3851 -26.3449 -26.3449
   -26.3212 -26.3169 -26.2134 -26.2134 -26.1992 -26.1864 -26.1864 -26.1823
   -26.1585 -26.1585 -25.7931 -25.7931 -25.7714 -25.7714 -25.7235 -25.7235
    -7.3193  -7.3193  -7.2929  -7.2929  -7.2854  -7.2848  -7.2848  -7.1398
    -7.1398   1.2651   1.2695   1.2695   1.2699   1.2836   1.2836   1.3897
     1.3897   1.9138   1.9139   2.2457   2.2553   2.2553   2.3051   2.3132
     2.3132   2.4725   2.4725   2.7918   2.8012   2.8012   2.8395   2.8677
     2.8677   2.8871   2.9844   2.9844   7.4925   7.4925   7.7906   7.7906
     8.3514   8.3626   8.3626   8.4975   8.5396   8.5396   8.6795   8.9049
     8.9049   9.0809   9.1785   9.1785   9.3048   9.4224   9.4224   9.4870
     9.5258   9.6726   9.6726  10.0214  10.0300  10.0300  10.0649  10.0929
    10.0929  10.1045  10.2348  10.2348  11.2650  11.2650  11.2790  11.3430
    11.3430  11.3735  11.4439  11.4439  11.4641  12.2293  12.2293  12.2805

     occupation numbers 
     1.0000   1.0000   1.0000   1.0000   1.0000   1.0000   1.0000   1.0000
     1.0000   1.0000   1.0000   1.0000   1.0000   1.0000   1.0000   1.0000
     1.0000   1.0000   1.0000   1.0000   1.0000   1.0000   1.0000   1.0000
     1.0000   1.0000   1.0000   1.0000   1.0000   1.0000   1.0000   1.0000
     1.0000   1.0000   1.0000   1.0000   1.0000   1.0000   1.0000   1.0000
     1.0000   1.0000   1.0000   1.0000   1.0000   1.0000   1.0000   1.0000
     1.0000   1.0000   1.0000   1.0000   1.0000   1.0000   1.0000   1.0000
     1.0000   1.0000   1.0000   1.0000   1.0000   1.0000   1.0000   1.0000
     1.0000   1.0000   1.0000   1.0000   1.0000   1.0000   1.0000   1.0000
     1.0000   1.0000   1.0000   1.0000   1.0191   1.0191   0.4823   0.4823
     0.0000   0.0000   0.0000   0.0000   0.0000   0.0000   0.0000   0.0000
     0.0000   0.0000   0.0000   0.0000   0.0000   0.0000   0.0000   0.0000
     0.0000   0.0000   0.0000   0.0000   0.0000   0.0000   0.0000   0.0000
     0.0000   0.0000   0.0000   0.0000   0.0000   0.0000   0.0000   0.0000
     0.0000   0.0000   0.0000   0.0000   0.0000   0.0000   0.0000   0.0000

     the Fermi energy is     7.8062 ev

!    total energy              =   -1383.69256586 Ry
     estimated scf accuracy    <          3.0E-09 Ry
     smearing contrib. (-TS)   =      -0.00078243 Ry
     internal energy E=F+TS    =   -1383.69178344 Ry

     The total energy is F=E-TS. E is the sum of the following terms:
     one-electron contribution =  -31030.16628723 Ry
     hartree contribution      =   15553.28170097 Ry
     xc contribution           =    -238.19856129 Ry
     ewald contribution        =   14331.39136412 Ry

     convergence has been achieved in  26 iterations

     negative rho (up, down):  2.247E-04 0.000E+00

     Forces acting on atoms (cartesian axes, Ry/au):

     atom    1 type  1   force =    -0.00000000   -0.00000000    0.04788630
     atom    2 type  2   force =    -0.00000000    0.00000000   -0.03165076
     atom    3 type  1   force =    -0.00000000    0.00000000   -0.03300680
     atom    4 type  2   force =     0.00000000    0.00000000    0.00253656
     atom    5 type  1   force =     0.00000000    0.00000000    0.01899058
     atom    6 type  2   force =    -0.00000000    0.00000000   -0.00445956
     atom    7 type  1   force =     0.00000000    0.00000000   -0.00799764
     atom    8 type  2   force =    -0.00000000    0.00000000    0.00142046
     atom    9 type  1   force =     0.00000000    0.00000000    0.00648565
     atom   10 type  2   force =     0.00000000    0.00000000    0.00000000
     atom   11 type  1   force =    -0.00000000   -0.00000000   -0.00648565
     atom   12 type  2   force =     0.00000000   -0.00000000   -0.00142046
     atom   13 type  1   force =     0.00000000    0.00000000    0.00799764
     atom   14 type  2   force =     0.00000000   -0.00000000    0.00445956
     atom   15 type  1   force =     0.00000000    0.00000000   -0.01899058
     atom   16 type  2   force =    -0.00000000   -0.00000000   -0.00253656
     atom   17 type  1   force =     0.00000000   -0.00000000    0.03300680
     atom   18 type  2   force =     0.00000000    0.00000000    0.03165076
     atom   19 type  1   force =     0.00000000    0.00000000   -0.04788630
     The non-local contrib.  to forces
     atom    1 type  1   force =     0.00000000   -0.00000000    0.05622371
     atom    2 type  2   force =     0.00000000   -0.00000000    0.00724159
     atom    3 type  1   force =     0.00000000    0.00000000   -0.00351656
     atom    4 type  2   force =     0.00000000    0.00000000    0.01293213
     atom    5 type  1   force =     0.00000000    0.00000000    0.00091318
     atom    6 type  2   force =     0.00000000    0.00000000   -0.00875071
     atom    7 type  1   force =     0.00000000    0.00000000   -0.00258336
     atom    8 type  2   force =     0.00000000    0.00000000   -0.00118929
     atom    9 type  1   force =     0.00000000    0.00000000    0.00123064
     atom   10 type  2   force =    -0.00000000    0.00000000    0.00000000
     atom   11 type  1   force =     0.00000000    0.00000000   -0.00123064
     atom   12 type  2   force =     0.00000000    0.00000000    0.00118929
     atom   13 type  1   force =     0.00000000    0.00000000    0.00258336
     atom   14 type  2   force =     0.00000000    0.00000000    0.00875071
     atom   15 type  1   force =     0.00000000    0.00000000   -0.00091318
     atom   16 type  2   force =     0.00000000   -0.00000000   -0.01293213
     atom   17 type  1   force =     0.00000000    0.00000000    0.00351656
     atom   18 type  2   force =     0.00000000    0.00000000   -0.00724159
     atom   19 type  1   force =     0.00000000    0.00000000   -0.05622371
     The ionic contribution  to forces
     atom    1 type  1   force =     0.00000000   -0.00000000 -355.92139473
     atom    2 type  2   force =    -0.00000000    0.00000000 -133.23258207
     atom    3 type  1   force =     0.00000000   -0.00000000 -279.94845566
     atom    4 type  2   force =    -0.00000000   -0.00000000  -99.97378793
     atom    5 type  1   force =    -0.00000000    0.00000000 -199.94809494
     atom    6 type  2   force =     0.00000000   -0.00000000  -66.64937375
     atom    7 type  1   force =    -0.00000000   -0.00000000 -119.96887048
     atom    8 type  2   force =    -0.00000000    0.00000000  -33.32468627
     atom    9 type  1   force =     0.00000000   -0.00000000  -39.98962353
     atom   10 type  2   force =    -0.00000000   -0.00000000    0.00000000
     atom   11 type  1   force =    -0.00000000    0.00000000   39.98962353
     atom   12 type  2   force =     0.00000000   -0.00000000   33.32468627
     atom   13 type  1   force =    -0.00000000   -0.00000000  119.96887048
     atom   14 type  2   force =    -0.00000000    0.00000000   66.64937375
     atom   15 type  1   force =     0.00000000   -0.00000000  199.94809494
     atom   16 type  2   force =    -0.00000000   -0.00000000   99.97378793
     atom   17 type  1   force =    -0.00000000    0.00000000  279.94845566
     atom   18 type  2   force =     0.00000000   -0.00000000  133.23258207
     atom   19 type  1   force =    -0.00000000    0.00000000  355.92139473
     The local contribution  to forces
     atom    1 type  1   force =     0.00000000   -0.00000000  355.92286321
     atom    2 type  2   force =    -0.00000001    0.00000001  133.19365620
     atom    3 type  1   force =     0.00000006   -0.00000004  279.91807298
     atom    4 type  2   force =    -0.00000000    0.00000000   99.96362214
     atom    5 type  1   force =    -0.00000005    0.00000006  199.96616418
     atom    6 type  2   force =     0.00000001   -0.00000001   66.65358809
     atom    7 type  1   force =     0.00000000   -0.00000000  119.96361075
     atom    8 type  2   force =    -0.00000001    0.00000001   33.32728728
     atom    9 type  1   force =     0.00000006   -0.00000004   39.99499027
     atom   10 type  2   force =     0.00000000    0.00000000    0.00000000
     atom   11 type  1   force =    -0.00000005    0.00000006  -39.99499027
     atom   12 type  2   force =     0.00000001   -0.00000001  -33.32728728
     atom   13 type  1   force =     0.00000000    0.00000000 -119.96361075
     atom   14 type  2   force =    -0.00000001    0.00000001  -66.65358809
     atom   15 type  1   force =     0.00000006   -0.00000004 -199.96616418
     atom   16 type  2   force =     0.00000000   -0.00000000  -99.96362214
     atom   17 type  1   force =    -0.00000005    0.00000006 -279.91807298
     atom   18 type  2   force =     0.00000001   -0.00000001 -133.19365620
     atom   19 type  1   force =    -0.00000000    0.00000000 -355.92286321
     The core correction contribution to forces
     atom    1 type  1   force =    -0.00000000    0.00000000   -0.00978153
     atom    2 type  2   force =     0.00000000   -0.00000000    0.00003125
     atom    3 type  1   force =    -0.00000000    0.00000000    0.00092701
     atom    4 type  2   force =     0.00000000   -0.00000000   -0.00020796
     atom    5 type  1   force =     0.00000000   -0.00000000    0.00010250
     atom    6 type  2   force =    -0.00000000    0.00000000    0.00014016
     atom    7 type  1   force =     0.00000000   -0.00000000   -0.00004707
     atom    8 type  2   force =     0.00000000   -0.00000000    0.00002886
     atom    9 type  1   force =    -0.00000000    0.00000000   -0.00008383
     atom   10 type  2   force =     0.00000000    0.00000000   -0.00000000
     atom   11 type  1   force =     0.00000000   -0.00000000    0.00008383
     atom   12 type  2   force =    -0.00000000    0.00000000   -0.00002886
     atom   13 type  1   force =    -0.00000000    0.00000000    0.00004707
     atom   14 type  2   force =     0.00000000   -0.00000000   -0.00014016
     atom   15 type  1   force =    -0.00000000    0.00000000   -0.00010250
     atom   16 type  2   force =    -0.00000000    0.00000000    0.00020796
     atom   17 type  1   force =     0.00000000   -0.00000000   -0.00092701
     atom   18 type  2   force =    -0.00000000    0.00000000   -0.00003125
     atom   19 type  1   force =     0.00000000   -0.00000000    0.00978153
     The Hubbard contrib.    to forces
     atom    1 type  1   force =     0.00000000    0.00000000    0.00000000
     atom    2 type  2   force =     0.00000000    0.00000000    0.00000000
     atom    3 type  1   force =     0.00000000    0.00000000    0.00000000
     atom    4 type  2   force =     0.00000000    0.00000000    0.00000000
     atom    5 type  1   force =     0.00000000    0.00000000    0.00000000
     atom    6 type  2   force =     0.00000000    0.00000000    0.00000000
     atom    7 type  1   force =     0.00000000    0.00000000    0.00000000
     atom    8 type  2   force =     0.00000000    0.00000000    0.00000000
     atom    9 type  1   force =     0.00000000    0.00000000    0.00000000
     atom   10 type  2   force =     0.00000000    0.00000000    0.00000000
     atom   11 type  1   force =     0.00000000    0.00000000    0.00000000
     atom   12 type  2   force =     0.00000000    0.00000000    0.00000000
     atom   13 type  1   force =     0.00000000    0.00000000    0.00000000
     atom   14 type  2   force =     0.00000000    0.00000000    0.00000000
     atom   15 type  1   force =     0.00000000    0.00000000    0.00000000
     atom   16 type  2   force =     0.00000000    0.00000000    0.00000000
     atom   17 type  1   force =     0.00000000    0.00000000    0.00000000
     atom   18 type  2   force =     0.00000000    0.00000000    0.00000000
     atom   19 type  1   force =     0.00000000    0.00000000    0.00000000
     The SCF correction term to forces
     atom    1 type  1   force =    -0.00000000    0.00000000   -0.00002436
     atom    2 type  2   force =     0.00000000   -0.00000000    0.00000227
     atom    3 type  1   force =    -0.00000000    0.00000000   -0.00003458
     atom    4 type  2   force =     0.00000000    0.00000000   -0.00002182
     atom    5 type  1   force =     0.00000000   -0.00000000   -0.00009435
     atom    6 type  2   force =    -0.00000000    0.00000000   -0.00006336
     atom    7 type  1   force =     0.00000000    0.00000000   -0.00000000
     atom    8 type  2   force =     0.00000000   -0.00000000   -0.00000000
     atom    9 type  1   force =    -0.00000000    0.00000000   -0.00000000
     atom   10 type  2   force =     0.00000000    0.00000000   -0.00000000
     atom   11 type  1   force =     0.00000000   -0.00000000    0.00000000
     atom   12 type  2   force =    -0.00000000    0.00000000    0.00000000
     atom   13 type  1   force =     0.00000000    0.00000000    0.00000000
     atom   14 type  2   force =     0.00000000   -0.00000000    0.00006336
     atom   15 type  1   force =    -0.00000000    0.00000000    0.00009435
     atom   16 type  2   force =     0.00000000    0.00000000    0.00002182
     atom   17 type  1   force =     0.00000000   -0.00000000    0.00003458
     atom   18 type  2   force =    -0.00000000    0.00000000   -0.00000227
     atom   19 type  1   force =     0.00000000   -0.00000000    0.00002436

     Total force =     0.097686     Total SCF correction =     0.000174


     Computing stress (Cartesian axis) and pressure


     negative rho (up, down):  2.247E-04 0.000E+00
          total   stress  (Ry/bohr**3)                   (kbar)     P=       -6.22
  -0.00002484   0.00000000   0.00000000           -3.65        0.00        0.00
   0.00000000  -0.00002484  -0.00000000            0.00       -3.65       -0.00
   0.00000000   0.00000000  -0.00007717            0.00        0.00      -11.35

     kinetic stress (kbar)  23053.23      0.00      0.00
                                0.00  23053.23     -0.00
                                0.00     -0.00  22940.47

     local   stress (kbar)**********      0.00     -0.00
                                0.00**********      0.00
                               -0.00      0.002044517.57

     nonloc. stress (kbar)      1.18      0.00      0.00
                                0.00      1.18      0.00
                                0.00      0.00     52.31

     hartree stress (kbar)1023444.12      0.00     -0.00
                                0.001023444.12     -0.00
                               -0.00     -0.00**********

     exc-cor stress (kbar)  -1518.59      0.00     -0.00
                                0.00  -1518.59      0.00
                               -0.00      0.00  -1522.01

     corecor stress (kbar)  -3161.99      0.00     -0.00
                                0.00  -3161.99      0.00
                               -0.00      0.00  -3161.73

     ewald   stress (kbar)1001106.17     -0.00      0.00
                               -0.001001106.17     -0.00
                                0.00     -0.00**********

     hubbard stress (kbar)      0.00      0.00      0.00
                                0.00      0.00      0.00
                                0.00      0.00      0.00

     DFT-D   stress (kbar)      0.00      0.00      0.00
                                0.00      0.00      0.00
                                0.00      0.00      0.00

     XDM     stress (kbar)      0.00      0.00      0.00
                                0.00      0.00      0.00
                                0.00      0.00      0.00

     dft-nl  stress (kbar)      0.00      0.00      0.00
                                0.00      0.00      0.00
                                0.00      0.00      0.00

     TS-vdW  stress (kbar)      0.00      0.00      0.00
                                0.00      0.00      0.00
                                0.00      0.00      0.00



     BFGS Geometry Optimization
     Energy error            =      0.0E+00
     Gradient error          =      4.8E-02

     number of scf cycles    =   1
     number of bfgs steps    =   0

     energy   new            =   -1383.6925658631 Ry

     new trust radius        =       0.0478862987 bohr
     new conv_thr            =       0.0000000100 Ry


ATOMIC_POSITIONS (angstrom)
Ti           -0.0000000000       -0.0000000000       10.0253403380
N             1.5004805900        0.8663028720       11.2083884099
Ti            3.0009611790        1.7326057450       12.4328080945
N             0.0000000000        0.0000000000       13.6767541042
Ti            1.5004805900        0.8663028720       14.9105984646
N             3.0009611790        1.7326057450       16.1233264597
Ti            0.0000000000        0.0000000000       17.3508236270    0   0   0
N             1.5004805900        0.8663028720       18.5759608990    0   0   0
Ti            3.0009611790        1.7326057450       19.8010981700    0   0   0
N             0.0000000000        0.0000000000       21.0262354410    0   0   0
Ti            1.5004805900        0.8663028720       22.2513727120    0   0   0
N             3.0009611790        1.7326057450       23.4765099830    0   0   0
Ti            0.0000000000        0.0000000000       24.7016472550    0   0   0
N             1.5004805900        0.8663028720       25.9291444223
Ti            3.0009611790        1.7326057450       27.1418724174
N            -0.0000000000       -0.0000000000       28.3757167778
Ti            1.5004805900        0.8663028720       29.6196627875
N             3.0009611790        1.7326057450       30.8440824721
Ti            0.0000000000        0.0000000000       32.0271305440



     Writing output data file ./tmp/tin111.save/
     NEW-OLD atomic charge density approx. for the potential

     Check: negative core charge=   -0.000003

     negative rho (up, down):  2.095E-04 0.000E+00

     total cpu time spent up to now is      604.1 secs

     Self-consistent Calculation

     iteration #  1     ecut=    60.00 Ry     beta= 0.20
     Davidson diagonalization with overlap
     ethr =  1.00E-06,  avg # of iterations =  8.5

     negative rho (up, down):  2.115E-04 0.000E+00

     total cpu time spent up to now is      660.0 secs

     total energy              =   -1383.69508634 Ry
     estimated scf accuracy    <       0.01674653 Ry

     iteration #  2     ecut=    60.00 Ry     beta= 0.20
     Davidson diagonalization with overlap
     ethr =  1.01E-05,  avg # of iterations = 11.1

     negative rho (up, down):  2.983E-04 0.000E+00

     total cpu time spent up to now is      688.7 secs

     total energy              =   -1383.60165794 Ry
     estimated scf accuracy    <      20.08933494 Ry

     iteration #  3     ecut=    60.00 Ry     beta= 0.20
     Davidson diagonalization with overlap
     ethr =  1.01E-05,  avg # of iterations =  8.9

     negative rho (up, down):  3.038E-04 0.000E+00

     total cpu time spent up to now is      716.1 secs

     total energy              =   -1383.69893757 Ry
     estimated scf accuracy    <       0.04143458 Ry

     iteration #  4     ecut=    60.00 Ry     beta= 0.20
     Davidson diagonalization with overlap
     ethr =  1.01E-05,  avg # of iterations =  1.7

     negative rho (up, down):  2.927E-04 0.000E+00

     total cpu time spent up to now is      734.7 secs

     total energy              =   -1383.70018945 Ry
     estimated scf accuracy    <       0.00831192 Ry

     iteration #  5     ecut=    60.00 Ry     beta= 0.20
     Davidson diagonalization with overlap
     ethr =  5.04E-06,  avg # of iterations =  1.8

     negative rho (up, down):  2.749E-04 0.000E+00

     total cpu time spent up to now is      755.3 secs

     total energy              =   -1383.70044186 Ry
     estimated scf accuracy    <       0.00071345 Ry

     iteration #  6     ecut=    60.00 Ry     beta= 0.20
     Davidson diagonalization with overlap
     ethr =  4.32E-07,  avg # of iterations =  2.1

     negative rho (up, down):  2.617E-04 0.000E+00

     total cpu time spent up to now is      775.7 secs

     total energy              =   -1383.70045390 Ry
     estimated scf accuracy    <       0.00016527 Ry

     iteration #  7     ecut=    60.00 Ry     beta= 0.20
     Davidson diagonalization with overlap
     ethr =  1.00E-07,  avg # of iterations =  1.3

     negative rho (up, down):  2.259E-04 0.000E+00

     total cpu time spent up to now is      793.2 secs

     total energy              =   -1383.70045155 Ry
     estimated scf accuracy    <       0.00014245 Ry

     iteration #  8     ecut=    60.00 Ry     beta= 0.20
     Davidson diagonalization with overlap
     ethr =  8.63E-08,  avg # of iterations =  1.9

     negative rho (up, down):  2.253E-04 0.000E+00

     total cpu time spent up to now is      813.6 secs

     total energy              =   -1383.70046191 Ry
     estimated scf accuracy    <       0.00001172 Ry

     iteration #  9     ecut=    60.00 Ry     beta= 0.20
     Davidson diagonalization with overlap
     ethr =  7.10E-09,  avg # of iterations =  2.3

     negative rho (up, down):  2.278E-04 0.000E+00

     total cpu time spent up to now is      834.4 secs

     total energy              =   -1383.70046254 Ry
     estimated scf accuracy    <       0.00000208 Ry

     iteration # 10     ecut=    60.00 Ry     beta= 0.20
     Davidson diagonalization with overlap
     ethr =  1.26E-09,  avg # of iterations =  3.7

     negative rho (up, down):  2.272E-04 0.000E+00

     total cpu time spent up to now is      856.3 secs

     total energy              =   -1383.70046285 Ry
     estimated scf accuracy    <       0.00000046 Ry

     iteration # 11     ecut=    60.00 Ry     beta= 0.20
     Davidson diagonalization with overlap
     ethr =  2.80E-10,  avg # of iterations =  4.2

     negative rho (up, down):  2.245E-04 0.000E+00

     total cpu time spent up to now is      878.5 secs

     total energy              =   -1383.70046305 Ry
     estimated scf accuracy    <       0.00000021 Ry

     iteration # 12     ecut=    60.00 Ry     beta= 0.20
     Davidson diagonalization with overlap
     ethr =  1.28E-10,  avg # of iterations =  1.5

     negative rho (up, down):  2.233E-04 0.000E+00

     total cpu time spent up to now is      897.9 secs

     total energy              =   -1383.70046313 Ry
     estimated scf accuracy    <       0.00000002 Ry

     iteration # 13     ecut=    60.00 Ry     beta= 0.20
     Davidson diagonalization with overlap
     ethr =  1.22E-11,  avg # of iterations =  4.8

     negative rho (up, down):  2.201E-04 0.000E+00

     total cpu time spent up to now is      922.2 secs

     End of self-consistent calculation

          k = 0.0000 0.0000 0.0000 ( 17133 PWs)   bands (ev):

   -50.0987 -50.0983 -50.0523 -50.0185 -49.9857 -49.9718 -49.9020 -49.9020
   -49.4418 -49.4418 -26.6905 -26.6426 -26.5488 -26.4189 -26.3124 -26.2410
   -26.1622 -26.1622 -26.1622 -26.1622 -26.1600 -26.1061 -26.1061 -26.0891
   -26.0851 -26.0851 -26.0639 -26.0639 -26.0573 -26.0573 -25.9744 -25.9744
   -25.9744 -25.9744 -25.8023 -25.8023 -25.4502 -25.4502 -25.4502 -25.4502
    -9.2678  -9.1094  -8.8446  -8.5397  -8.2097  -7.8197  -7.4323  -7.1296
    -6.9228  -0.1822   0.1492   0.6610   1.2753   2.0039   2.3585   2.3585
     2.5177   2.5177   2.7907   2.7907   2.8675   3.1036   3.1036   3.4609
     3.4609   3.7705   3.9527   3.9527   4.5363   4.5363   4.6175   5.0850
     5.0850   5.3632   5.5417   5.5417   6.9305   7.0011   7.2456   7.2456
     7.3563   7.4266   7.4266   7.5446   7.6888   7.6888   7.7872   7.9781
     7.9781   8.0753   8.2616   8.2616   8.3968   8.4959   8.4959   8.5962
     8.5962   8.7583   8.8543   8.8543   8.9844   8.9844   9.1480   9.3026
     9.3026   9.3677   9.3677   9.5244   9.5529   9.5529   9.5840   9.5840
     9.8416  10.0615  10.1034  10.1034  10.8295  10.8295  11.5562  11.5562

     occupation numbers 
     1.0000   1.0000   1.0000   1.0000   1.0000   1.0000   1.0000   1.0000
     1.0000   1.0000   1.0000   1.0000   1.0000   1.0000   1.0000   1.0000
     1.0000   1.0000   1.0000   1.0000   1.0000   1.0000   1.0000   1.0000
     1.0000   1.0000   1.0000   1.0000   1.0000   1.0000   1.0000   1.0000
     1.0000   1.0000   1.0000   1.0000   1.0000   1.0000   1.0000   1.0000
     1.0000   1.0000   1.0000   1.0000   1.0000   1.0000   1.0000   1.0000
     1.0000   1.0000   1.0000   1.0000   1.0000   1.0000   1.0000   1.0000
     1.0000   1.0000   1.0000   1.0000   1.0000   1.0000   1.0000   1.0000
     1.0000   1.0000   1.0000   1.0000   1.0000   1.0000   1.0000   1.0000
     1.0000   1.0000   1.0000   1.0000   1.0000   1.0000   1.0000   1.0000
     1.0004   1.0042   1.0042   1.0519   0.9592   0.9592   0.4716   0.0093
     0.0093   0.0003   0.0000   0.0000   0.0000   0.0000   0.0000   0.0000
     0.0000   0.0000   0.0000   0.0000   0.0000   0.0000   0.0000   0.0000
     0.0000   0.0000   0.0000   0.0000   0.0000   0.0000   0.0000   0.0000
     0.0000   0.0000   0.0000   0.0000   0.0000   0.0000   0.0000   0.0000

          k = 0.0000 0.0962 0.0000 ( 17192 PWs)   bands (ev):

   -50.0939 -50.0936 -50.0471 -50.0141 -49.9821 -49.9687 -49.8979 -49.8979
   -49.4380 -49.4380 -26.6746 -26.6296 -26.5403 -26.4166 -26.3160 -26.2474
   -26.1897 -26.1891 -26.1705 -26.1704 -26.1690 -26.1358 -26.1168 -26.1111
   -26.0984 -26.0926 -26.0859 -26.0788 -26.0687 -26.0600 -26.0064 -26.0061
   -25.9811 -25.9811 -25.7980 -25.7980 -25.4787 -25.4787 -25.4565 -25.4565
    -9.1501  -8.9995  -8.7473  -8.4599  -8.1519  -7.7877  -7.4287  -7.1543
    -6.9693  -0.0346   0.2689   0.7336   1.2796   1.9050   2.3583   2.4081
     2.5153   2.5614   2.5842   2.8121   2.8241   3.0666   3.1214   3.3224
     3.4567   3.5296   3.9154   3.9682   4.1198   4.4446   4.5468   4.6881
     4.9083   4.9736   5.1791   5.2533   6.8609   6.8971   7.0797   7.2802
     7.3945   7.5107   7.5799   7.5841   7.7761   7.8317   7.8534   8.0325
     8.1149   8.1179   8.3141   8.3639   8.4137   8.5532   8.6524   8.6804
     8.7225   8.9176   8.9738   9.0051   9.0483   9.0516   9.2701   9.3462
     9.3555   9.3787   9.4389   9.5344   9.6026   9.6386   9.7435   9.7823
     9.9751  10.0532  10.1692  10.1938  10.7410  10.8766  11.3981  11.5816

     occupation numbers 
     1.0000   1.0000   1.0000   1.0000   1.0000   1.0000   1.0000   1.0000
     1.0000   1.0000   1.0000   1.0000   1.0000   1.0000   1.0000   1.0000
     1.0000   1.0000   1.0000   1.0000   1.0000   1.0000   1.0000   1.0000
     1.0000   1.0000   1.0000   1.0000   1.0000   1.0000   1.0000   1.0000
     1.0000   1.0000   1.0000   1.0000   1.0000   1.0000   1.0000   1.0000
     1.0000   1.0000   1.0000   1.0000   1.0000   1.0000   1.0000   1.0000
     1.0000   1.0000   1.0000   1.0000   1.0000   1.0000   1.0000   1.0000
     1.0000   1.0000   1.0000   1.0000   1.0000   1.0000   1.0000   1.0000
     1.0000   1.0000   1.0000   1.0000   1.0000   1.0000   1.0000   1.0000
     1.0000   1.0000   1.0000   1.0000   1.0000   1.0000   1.0000   1.0000
     1.0016   1.0304   1.0747   1.0768   0.5321   0.2605   0.1818   0.0015
     0.0001   0.0000   0.0000   0.0000   0.0000   0.0000   0.0000   0.0000
     0.0000   0.0000   0.0000   0.0000   0.0000   0.0000   0.0000   0.0000
     0.0000   0.0000   0.0000   0.0000   0.0000   0.0000   0.0000   0.0000
     0.0000   0.0000   0.0000   0.0000   0.0000   0.0000   0.0000   0.0000

          k = 0.0000 0.1925 0.0000 ( 17226 PWs)   bands (ev):

   -50.0807 -50.0805 -50.0326 -50.0021 -49.9724 -49.9607 -49.8864 -49.8864
   -49.4274 -49.4274 -26.6303 -26.5943 -26.5201 -26.4217 -26.3521 -26.3008
   -26.2491 -26.2328 -26.2219 -26.2053 -26.1929 -26.1927 -26.1681 -26.1570
   -26.1437 -26.1363 -26.1128 -26.1018 -26.0828 -26.0792 -26.0730 -26.0696
   -25.9995 -25.9995 -25.7899 -25.7899 -25.5555 -25.5555 -25.4736 -25.4736
    -8.8208  -8.6935  -8.4784  -8.2418  -7.9973  -7.7050  -7.4227  -7.2210
    -7.0900   0.3719   0.5944   0.9250   1.2911   1.6900   2.0922   2.3656
     2.4474   2.5250   2.5783   2.6609   2.7623   2.8944   3.0029   3.1494
     3.1835   3.4272   3.4334   3.6379   3.7913   3.8060   4.1541   4.2235
     4.3745   4.5547   4.6904   4.7800   6.4487   6.6553   6.9208   7.0520
     7.1912   7.5026   7.7503   7.8480   7.9131   7.9932   8.1679   8.2257
     8.2582   8.4312   8.5485   8.5665   8.6520   8.7157   8.8618   8.8992
     8.9433   9.0840   9.1627   9.2228   9.2503   9.2778   9.4262   9.4855
     9.6363   9.6584   9.7238   9.8056   9.8230   9.8961   9.9710  10.0156
    10.2140  10.3528  10.4691  10.6684  10.8427  10.9905  11.1987  11.6352

     occupation numbers 
     1.0000   1.0000   1.0000   1.0000   1.0000   1.0000   1.0000   1.0000
     1.0000   1.0000   1.0000   1.0000   1.0000   1.0000   1.0000   1.0000
     1.0000   1.0000   1.0000   1.0000   1.0000   1.0000   1.0000   1.0000
     1.0000   1.0000   1.0000   1.0000   1.0000   1.0000   1.0000   1.0000
     1.0000   1.0000   1.0000   1.0000   1.0000   1.0000   1.0000   1.0000
     1.0000   1.0000   1.0000   1.0000   1.0000   1.0000   1.0000   1.0000
     1.0000   1.0000   1.0000   1.0000   1.0000   1.0000   1.0000   1.0000
     1.0000   1.0000   1.0000   1.0000   1.0000   1.0000   1.0000   1.0000
     1.0000   1.0000   1.0000   1.0000   1.0000   1.0000   1.0000   1.0000
     1.0000   1.0000   1.0000   1.0000   1.0000   1.0000   1.0000   1.0000
     1.0000   1.0261   0.6745   0.1997   0.0534   0.0058   0.0000   0.0000
     0.0000   0.0000   0.0000   0.0000   0.0000   0.0000   0.0000   0.0000
     0.0000   0.0000   0.0000   0.0000   0.0000   0.0000   0.0000   0.0000
     0.0000   0.0000   0.0000   0.0000   0.0000   0.0000   0.0000   0.0000
     0.0000   0.0000   0.0000   0.0000   0.0000   0.0000   0.0000   0.0000

          k = 0.0000 0.2887 0.0000 ( 17282 PWs)   bands (ev):

   -50.0627 -50.0626 -50.0121 -49.9855 -49.9593 -49.9502 -49.8708 -49.8708
   -49.4129 -49.4129 -26.5698 -26.5501 -26.5108 -26.4744 -26.4469 -26.4050
   -26.3463 -26.3149 -26.2734 -26.2523 -26.2497 -26.2272 -26.2235 -26.2229
   -26.1807 -26.1772 -26.1497 -26.1395 -26.1238 -26.1031 -26.0967 -26.0852
   -26.0244 -26.0244 -25.7826 -25.7826 -25.6575 -25.6575 -25.4969 -25.4969
    -8.3574  -8.2679  -8.1104  -7.9495  -7.7967  -7.6027  -7.4146  -7.2942
    -7.2215   0.8371   0.9799   1.1605   1.2956   1.4702   1.6951   1.8974
     2.0909   2.2604   2.3302   2.4359   2.6074   2.6349   2.7213   2.9204
     2.9321   3.1313   3.2245   3.3565   3.4344   3.6168   3.6718   3.9905
     4.0199   4.2918   4.3621   4.4773   5.8643   6.1777   6.6243   7.0912
     7.2029   7.2297   7.6423   8.1587   8.2591   8.3792   8.4205   8.5312
     8.5774   8.7395   8.7787   8.7913   8.9767   9.0288   9.0386   9.0959
     9.1415   9.3234   9.3674   9.4772   9.6061   9.6296   9.6627   9.7186
     9.7504   9.8260   9.8664   9.8814   9.9980  10.0904  10.1154  10.5627
    10.7336  10.9155  11.0985  11.1748  11.2943  11.4027  11.5127  11.6677

     occupation numbers 
     1.0000   1.0000   1.0000   1.0000   1.0000   1.0000   1.0000   1.0000
     1.0000   1.0000   1.0000   1.0000   1.0000   1.0000   1.0000   1.0000
     1.0000   1.0000   1.0000   1.0000   1.0000   1.0000   1.0000   1.0000
     1.0000   1.0000   1.0000   1.0000   1.0000   1.0000   1.0000   1.0000
     1.0000   1.0000   1.0000   1.0000   1.0000   1.0000   1.0000   1.0000
     1.0000   1.0000   1.0000   1.0000   1.0000   1.0000   1.0000   1.0000
     1.0000   1.0000   1.0000   1.0000   1.0000   1.0000   1.0000   1.0000
     1.0000   1.0000   1.0000   1.0000   1.0000   1.0000   1.0000   1.0000
     1.0000   1.0000   1.0000   1.0000   1.0000   1.0000   1.0000   1.0000
     1.0000   1.0000   1.0000   1.0000   1.0000   1.0000   1.0000   1.0000
     1.0000   1.0000   1.0650   0.0000   0.0000   0.0000   0.0000   0.0000
     0.0000   0.0000   0.0000   0.0000   0.0000   0.0000   0.0000   0.0000
     0.0000   0.0000   0.0000   0.0000   0.0000   0.0000   0.0000   0.0000
     0.0000   0.0000   0.0000   0.0000   0.0000   0.0000   0.0000   0.0000
     0.0000   0.0000   0.0000   0.0000   0.0000   0.0000   0.0000   0.0000

          k = 0.0000 0.3849 0.0000 ( 17380 PWs)   bands (ev):

   -50.0446 -50.0446 -49.9903 -49.9687 -49.9466 -49.9406 -49.8551 -49.8550
   -49.3983 -49.3983 -26.5894 -26.5775 -26.5449 -26.5213 -26.5162 -26.4693
   -26.4555 -26.3910 -26.3537 -26.3258 -26.2864 -26.2539 -26.2527 -26.2355
   -26.2088 -26.1946 -26.1680 -26.1656 -26.1408 -26.1241 -26.1119 -26.1025
   -26.0492 -26.0491 -25.7809 -25.7809 -25.7521 -25.7521 -25.5201 -25.5201
    -7.9492  -7.8992  -7.7947  -7.6942  -7.6107  -7.4840  -7.3477  -7.2649
    -7.2197   0.6226   0.7913   1.0492   1.2948   1.4174   1.4389   1.5249
     1.6617   1.9992   2.0437   2.3352   2.5417   2.5672   2.6545   2.7621
     2.8408   2.8515   2.9712   3.0617   3.2888   3.3368   3.6044   3.7919
     3.9497   4.2194   4.2343   4.4048   5.3514   5.7585   6.2797   6.8237
     7.4039   7.5003   7.5024   8.0173   8.5691   8.8245   8.9080   8.9163
     8.9638   9.0513   9.0907   9.1923   9.2077   9.2772   9.3933   9.4914
     9.5025   9.5248   9.5710   9.5947   9.6894   9.7778   9.8431   9.9180
     9.9751   9.9875  10.0579  10.1176  10.1400  10.1626  10.3348  10.6767
    11.1523  11.2351  11.3843  11.5836  11.6630  11.7045  11.7233  11.7805

     occupation numbers 
     1.0000   1.0000   1.0000   1.0000   1.0000   1.0000   1.0000   1.0000
     1.0000   1.0000   1.0000   1.0000   1.0000   1.0000   1.0000   1.0000
     1.0000   1.0000   1.0000   1.0000   1.0000   1.0000   1.0000   1.0000
     1.0000   1.0000   1.0000   1.0000   1.0000   1.0000   1.0000   1.0000
     1.0000   1.0000   1.0000   1.0000   1.0000   1.0000   1.0000   1.0000
     1.0000   1.0000   1.0000   1.0000   1.0000   1.0000   1.0000   1.0000
     1.0000   1.0000   1.0000   1.0000   1.0000   1.0000   1.0000   1.0000
     1.0000   1.0000   1.0000   1.0000   1.0000   1.0000   1.0000   1.0000
     1.0000   1.0000   1.0000   1.0000   1.0000   1.0000   1.0000   1.0000
     1.0000   1.0000   1.0000   1.0000   1.0000   1.0000   1.0000   1.0000
     1.0021   1.0250   1.0260   0.0026   0.0000   0.0000   0.0000   0.0000
     0.0000   0.0000   0.0000   0.0000   0.0000   0.0000   0.0000   0.0000
     0.0000   0.0000   0.0000   0.0000   0.0000   0.0000   0.0000   0.0000
     0.0000   0.0000   0.0000   0.0000   0.0000   0.0000   0.0000   0.0000
     0.0000   0.0000   0.0000   0.0000   0.0000   0.0000   0.0000   0.0000

          k = 0.0000 0.4811 0.0000 ( 17374 PWs)   bands (ev):

   -50.0313 -50.0313 -49.9728 -49.9564 -49.9378 -49.9347 -49.8435 -49.8435
   -49.3876 -49.3876 -26.6727 -26.6597 -26.6103 -26.5696 -26.5502 -26.5371
   -26.4679 -26.4567 -26.3631 -26.3239 -26.2794 -26.2761 -26.2743 -26.2477
   -26.2311 -26.2069 -26.1846 -26.1744 -26.1499 -26.1398 -26.1238 -26.1158
   -26.0672 -26.0671 -25.8286 -25.8286 -25.7699 -25.7699 -25.5370 -25.5370
    -7.8691  -7.8023  -7.6774  -7.5600  -7.4554  -7.3033  -7.1503  -7.0577
    -7.0049   0.0414   0.2381   0.5462   0.8763   1.1899   1.4746   1.7118
     1.8902   1.9974   2.2805   2.3693   2.4085   2.4394   2.4909   2.5359
     2.5742   2.7532   2.7860   2.9889   3.2039   3.2466   3.5926   3.7063
     3.9638   4.2123   4.2542   4.4548   5.0088   5.5051   6.0643   6.6332
     7.2414   7.8257   7.8422   7.9041   8.4993   8.9754   9.2664   9.2965
     9.3506   9.3583   9.4139   9.4625   9.5632   9.6134   9.6244   9.6265
     9.7226   9.8119   9.8737   9.9182   9.9329   9.9714  10.0324  10.0595
    10.1233  10.1365  10.1619  10.1768  10.1893  10.2559  10.4090  10.6702
    11.1217  11.4513  11.5026  11.6125  11.6746  11.8104  12.0697  12.2354

     occupation numbers 
     1.0000   1.0000   1.0000   1.0000   1.0000   1.0000   1.0000   1.0000
     1.0000   1.0000   1.0000   1.0000   1.0000   1.0000   1.0000   1.0000
     1.0000   1.0000   1.0000   1.0000   1.0000   1.0000   1.0000   1.0000
     1.0000   1.0000   1.0000   1.0000   1.0000   1.0000   1.0000   1.0000
     1.0000   1.0000   1.0000   1.0000   1.0000   1.0000   1.0000   1.0000
     1.0000   1.0000   1.0000   1.0000   1.0000   1.0000   1.0000   1.0000
     1.0000   1.0000   1.0000   1.0000   1.0000   1.0000   1.0000   1.0000
     1.0000   1.0000   1.0000   1.0000   1.0000   1.0000   1.0000   1.0000
     1.0000   1.0000   1.0000   1.0000   1.0000   1.0000   1.0000   1.0000
     1.0000   1.0000   1.0000   1.0000   1.0000   1.0000   1.0000   1.0000
     1.0000   0.2852   0.2203   0.0657   0.0000   0.0000   0.0000   0.0000
     0.0000   0.0000   0.0000   0.0000   0.0000   0.0000   0.0000   0.0000
     0.0000   0.0000   0.0000   0.0000   0.0000   0.0000   0.0000   0.0000
     0.0000   0.0000   0.0000   0.0000   0.0000   0.0000   0.0000   0.0000
     0.0000   0.0000   0.0000   0.0000   0.0000   0.0000   0.0000   0.0000

          k = 0.0000-0.5774 0.0000 ( 17314 PWs)   bands (ev):

   -50.0264 -50.0264 -49.9656 -49.9520 -49.9347 -49.9328 -49.8392 -49.8392
   -49.3837 -49.3837 -26.7042 -26.6908 -26.6404 -26.5896 -26.5698 -26.5641
   -26.4886 -26.4837 -26.3186 -26.3059 -26.2841 -26.2822 -26.2767 -26.2761
   -26.2391 -26.2138 -26.1915 -26.1764 -26.1525 -26.1456 -26.1282 -26.1207
   -26.0737 -26.0737 -25.8521 -25.8521 -25.7694 -25.7694 -25.5432 -25.5432
    -7.8837  -7.8050  -7.6634  -7.5269  -7.3981  -7.2187  -7.0430  -6.9338
    -6.8688  -0.2209  -0.0024   0.3464   0.7436   1.1506   1.5358   1.7961
     1.9125   1.9667   2.3062   2.3081   2.3498   2.3605   2.4597   2.4834
     2.5671   2.7101   2.7757   2.9580   3.1748   3.2303   3.5918   3.6825
     3.9776   4.2125   4.2807   4.4907   4.8890   5.4273   5.9952   6.5700
     7.1839   7.8232   7.9922   8.0099   8.4701   8.9789   9.3257   9.4637
     9.4903   9.4941   9.5360   9.6305   9.6666   9.6853   9.6854   9.7553
     9.8665   9.8801  10.0485  10.0564  10.0818  10.1015  10.1044  10.1139
    10.1648  10.1716  10.1800  10.2278  10.2311  10.3953  10.4747  10.6070
    11.0688  11.4283  11.5244  11.6396  11.7073  11.9807  12.2136  12.3047

     occupation numbers 
     1.0000   1.0000   1.0000   1.0000   1.0000   1.0000   1.0000   1.0000
     1.0000   1.0000   1.0000   1.0000   1.0000   1.0000   1.0000   1.0000
     1.0000   1.0000   1.0000   1.0000   1.0000   1.0000   1.0000   1.0000
     1.0000   1.0000   1.0000   1.0000   1.0000   1.0000   1.0000   1.0000
     1.0000   1.0000   1.0000   1.0000   1.0000   1.0000   1.0000   1.0000
     1.0000   1.0000   1.0000   1.0000   1.0000   1.0000   1.0000   1.0000
     1.0000   1.0000   1.0000   1.0000   1.0000   1.0000   1.0000   1.0000
     1.0000   1.0000   1.0000   1.0000   1.0000   1.0000   1.0000   1.0000
     1.0000   1.0000   1.0000   1.0000   1.0000   1.0000   1.0000   1.0000
     1.0000   1.0000   1.0000   1.0000   1.0000   1.0000   1.0000   1.0000
     1.0000   0.2960   0.0060   0.0034   0.0000   0.0000   0.0000   0.0000
     0.0000   0.0000   0.0000   0.0000   0.0000   0.0000   0.0000   0.0000
     0.0000   0.0000   0.0000   0.0000   0.0000   0.0000   0.0000   0.0000
     0.0000   0.0000   0.0000   0.0000   0.0000   0.0000   0.0000   0.0000
     0.0000   0.0000   0.0000   0.0000   0.0000   0.0000   0.0000   0.0000

          k = 0.0833 0.1443 0.0000 ( 17259 PWs)   bands (ev):

   -50.0849 -50.0847 -50.0372 -50.0059 -49.9755 -49.9632 -49.8901 -49.8901
   -49.4307 -49.4307 -26.6445 -26.6053 -26.5258 -26.4173 -26.3348 -26.2769
   -26.2267 -26.2237 -26.2076 -26.1923 -26.1867 -26.1764 -26.1542 -26.1472
   -26.1283 -26.1203 -26.1013 -26.0911 -26.0792 -26.0738 -26.0572 -26.0550
   -25.9958 -25.9958 -25.7921 -25.7921 -25.5298 -25.5298 -25.4697 -25.4697
    -8.9262  -8.7912  -8.5638  -8.3106  -8.0456  -7.7303  -7.4243  -7.2006
    -7.0537   0.2451   0.4930   0.8662   1.2881   1.7501   2.2128   2.3692
     2.4682   2.5864   2.6214   2.6342   2.8527   2.9304   3.0271   3.2066
     3.3000   3.4247   3.6695   3.7353   3.8615   4.0900   4.2031   4.3219
     4.5542   4.5826   4.6284   4.8509   6.8070   6.8332   7.0623   7.1805
     7.2275   7.4756   7.5535   7.6565   7.7811   8.0264   8.0317   8.1074
     8.2901   8.3047   8.3866   8.5441   8.6460   8.6558   8.8490   8.9072
     8.9110   9.0437   9.0985   9.2132   9.2157   9.2826   9.3995   9.4798
     9.5168   9.5459   9.5538   9.6150   9.6575   9.8266   9.9080  10.0005
    10.0681  10.2115  10.4145  10.5454  10.7808  10.9083  11.3588  11.4554

     occupation numbers 
     1.0000   1.0000   1.0000   1.0000   1.0000   1.0000   1.0000   1.0000
     1.0000   1.0000   1.0000   1.0000   1.0000   1.0000   1.0000   1.0000
     1.0000   1.0000   1.0000   1.0000   1.0000   1.0000   1.0000   1.0000
     1.0000   1.0000   1.0000   1.0000   1.0000   1.0000   1.0000   1.0000
     1.0000   1.0000   1.0000   1.0000   1.0000   1.0000   1.0000   1.0000
     1.0000   1.0000   1.0000   1.0000   1.0000   1.0000   1.0000   1.0000
     1.0000   1.0000   1.0000   1.0000   1.0000   1.0000   1.0000   1.0000
     1.0000   1.0000   1.0000   1.0000   1.0000   1.0000   1.0000   1.0000
     1.0000   1.0000   1.0000   1.0000   1.0000   1.0000   1.0000   1.0000
     1.0000   1.0000   1.0000   1.0000   1.0000   1.0000   1.0000   1.0000
     1.0000   1.0148   1.0580   1.0436   0.5047   0.0019   0.0016   0.0001
     0.0000   0.0000   0.0000   0.0000   0.0000   0.0000   0.0000   0.0000
     0.0000   0.0000   0.0000   0.0000   0.0000   0.0000   0.0000   0.0000
     0.0000   0.0000   0.0000   0.0000   0.0000   0.0000   0.0000   0.0000
     0.0000   0.0000   0.0000   0.0000   0.0000   0.0000   0.0000   0.0000

          k = 0.0833 0.2406 0.0000 ( 17323 PWs)   bands (ev):

   -50.0693 -50.0692 -50.0197 -49.9916 -49.9640 -49.9539 -49.8765 -49.8765
   -49.4182 -49.4182 -26.5909 -26.5650 -26.5087 -26.4433 -26.4042 -26.3615
   -26.3060 -26.2772 -26.2615 -26.2402 -26.2215 -26.2178 -26.2111 -26.2000
   -26.1679 -26.1532 -26.1321 -26.1289 -26.1145 -26.1083 -26.0962 -26.0798
   -26.0222 -26.0222 -25.7846 -25.7846 -25.6154 -25.6154 -25.4938 -25.4937
    -8.5253  -8.4208  -8.2411  -8.0522  -7.8664  -7.6386  -7.4209  -7.2768
    -7.1877   0.7301   0.8701   1.0724   1.2923   1.5515   1.8263   2.0724
     2.3210   2.4005   2.5123   2.6391   2.7163   2.7781   2.8143   2.9580
     3.0300   3.1861   3.3041   3.4068   3.6057   3.6852   3.7721   3.9570
     3.9980   4.1572   4.2178   4.3403   6.4962   6.6544   6.9266   7.0989
     7.2100   7.4600   7.5410   7.8156   7.8807   8.0280   8.2408   8.4235
     8.5319   8.6010   8.6645   8.7605   8.8328   8.8925   9.0011   9.1033
     9.2640   9.3378   9.3720   9.4651   9.4986   9.5469   9.6225   9.6767
     9.7042   9.7333   9.8105   9.8871   9.9454   9.9790  10.0406  10.2126
    10.3389  10.5207  10.7801  11.0688  11.2208  11.3704  11.3782  11.5937

     occupation numbers 
     1.0000   1.0000   1.0000   1.0000   1.0000   1.0000   1.0000   1.0000
     1.0000   1.0000   1.0000   1.0000   1.0000   1.0000   1.0000   1.0000
     1.0000   1.0000   1.0000   1.0000   1.0000   1.0000   1.0000   1.0000
     1.0000   1.0000   1.0000   1.0000   1.0000   1.0000   1.0000   1.0000
     1.0000   1.0000   1.0000   1.0000   1.0000   1.0000   1.0000   1.0000
     1.0000   1.0000   1.0000   1.0000   1.0000   1.0000   1.0000   1.0000
     1.0000   1.0000   1.0000   1.0000   1.0000   1.0000   1.0000   1.0000
     1.0000   1.0000   1.0000   1.0000   1.0000   1.0000   1.0000   1.0000
     1.0000   1.0000   1.0000   1.0000   1.0000   1.0000   1.0000   1.0000
     1.0000   1.0000   1.0000   1.0000   1.0000   1.0000   1.0000   1.0000
     1.0000   1.0102   1.0494   0.3297   0.1085   0.0018   0.0000   0.0000
     0.0000   0.0000   0.0000   0.0000   0.0000   0.0000   0.0000   0.0000
     0.0000   0.0000   0.0000   0.0000   0.0000   0.0000   0.0000   0.0000
     0.0000   0.0000   0.0000   0.0000   0.0000   0.0000   0.0000   0.0000
     0.0000   0.0000   0.0000   0.0000   0.0000   0.0000   0.0000   0.0000

          k = 0.0833 0.3368 0.0000 ( 17369 PWs)   bands (ev):

   -50.0512 -50.0512 -49.9985 -49.9749 -49.9512 -49.9440 -49.8608 -49.8608
   -49.4037 -49.4037 -26.5463 -26.5364 -26.5284 -26.5066 -26.4862 -26.4606
   -26.4120 -26.3573 -26.3152 -26.3015 -26.2878 -26.2450 -26.2425 -26.2354
   -26.1990 -26.1863 -26.1725 -26.1554 -26.1429 -26.1278 -26.1150 -26.0946
   -26.0521 -26.0519 -25.7788 -25.7788 -25.7107 -25.7107 -25.5215 -25.5215
    -8.0595  -7.9979  -7.8800  -7.7672  -7.6727  -7.5395  -7.4032  -7.3233
    -7.2808   0.9224   1.0625   1.2735   1.3797   1.4303   1.4863   1.6231
     1.7461   2.0237   2.0323   2.3904   2.6140   2.6693   2.7263   2.8727
     2.9310   3.0059   3.0912   3.1802   3.2840   3.3528   3.5047   3.6903
     3.7460   3.8844   3.9331   4.1043   6.0390   6.2810   6.6859   7.1414
     7.3280   7.3464   7.6760   8.0272   8.1893   8.2579   8.4919   8.5919
     8.8325   8.8625   9.0764   9.1495   9.1933   9.2385   9.3094   9.3305
     9.4302   9.4781   9.5005   9.6607   9.6869   9.7428   9.8562   9.8922
     9.9201   9.9813  10.0366  10.0739  10.1261  10.1363  10.2739  10.5430
    10.9196  10.9775  11.1466  11.3270  11.3696  11.7348  11.7487  11.8105

     occupation numbers 
     1.0000   1.0000   1.0000   1.0000   1.0000   1.0000   1.0000   1.0000
     1.0000   1.0000   1.0000   1.0000   1.0000   1.0000   1.0000   1.0000
     1.0000   1.0000   1.0000   1.0000   1.0000   1.0000   1.0000   1.0000
     1.0000   1.0000   1.0000   1.0000   1.0000   1.0000   1.0000   1.0000
     1.0000   1.0000   1.0000   1.0000   1.0000   1.0000   1.0000   1.0000
     1.0000   1.0000   1.0000   1.0000   1.0000   1.0000   1.0000   1.0000
     1.0000   1.0000   1.0000   1.0000   1.0000   1.0000   1.0000   1.0000
     1.0000   1.0000   1.0000   1.0000   1.0000   1.0000   1.0000   1.0000
     1.0000   1.0000   1.0000   1.0000   1.0000   1.0000   1.0000   1.0000
     1.0000   1.0000   1.0000   1.0000   1.0000   1.0000   1.0000   1.0000
     1.0001   1.0003   0.9987   0.0018   0.0000   0.0000   0.0000   0.0000
     0.0000   0.0000   0.0000   0.0000   0.0000   0.0000   0.0000   0.0000
     0.0000   0.0000   0.0000   0.0000   0.0000   0.0000   0.0000   0.0000
     0.0000   0.0000   0.0000   0.0000   0.0000   0.0000   0.0000   0.0000
     0.0000   0.0000   0.0000   0.0000   0.0000   0.0000   0.0000   0.0000

          k = 0.0833 0.4330 0.0000 ( 17416 PWs)   bands (ev):

   -50.0356 -50.0355 -49.9786 -49.9603 -49.9405 -49.9364 -49.8472 -49.8472
   -49.3910 -49.3910 -26.6274 -26.6158 -26.5694 -26.5439 -26.5250 -26.5032
   -26.4538 -26.4225 -26.3739 -26.3345 -26.2915 -26.2782 -26.2738 -26.2376
   -26.2339 -26.2097 -26.1856 -26.1686 -26.1607 -26.1383 -26.1329 -26.1122
   -26.0772 -26.0768 -25.7967 -25.7967 -25.7683 -25.7683 -25.5453 -25.5453
    -7.8139  -7.7662  -7.6662  -7.5748  -7.5040  -7.3911  -7.2687  -7.1981
    -7.1628   0.4141   0.5815   0.8377   1.0816   1.2676   1.4340   1.6264
     1.8298   2.0352   2.2003   2.3711   2.4292   2.5289   2.6237   2.6684
     2.7270   2.7955   2.8495   2.9686   3.1346   3.2154   3.3765   3.6097
     3.6461   3.7712   3.8422   4.0846   5.7180   5.9946   6.4428   6.9426
     7.4917   7.6564   7.6594   8.0759   8.5902   8.6494   8.7916   8.9591
     9.0480   9.1838   9.2583   9.3960   9.4289   9.4977   9.5786   9.6633
     9.7073   9.7445   9.8184   9.8552   9.9057   9.9414   9.9918  10.0740
    10.0779  10.1089  10.1487  10.1773  10.2074  10.2605  10.4341  10.6812
    11.0110  11.3097  11.4728  11.6050  11.6430  11.7453  11.9096  12.0189

     occupation numbers 
     1.0000   1.0000   1.0000   1.0000   1.0000   1.0000   1.0000   1.0000
     1.0000   1.0000   1.0000   1.0000   1.0000   1.0000   1.0000   1.0000
     1.0000   1.0000   1.0000   1.0000   1.0000   1.0000   1.0000   1.0000
     1.0000   1.0000   1.0000   1.0000   1.0000   1.0000   1.0000   1.0000
     1.0000   1.0000   1.0000   1.0000   1.0000   1.0000   1.0000   1.0000
     1.0000   1.0000   1.0000   1.0000   1.0000   1.0000   1.0000   1.0000
     1.0000   1.0000   1.0000   1.0000   1.0000   1.0000   1.0000   1.0000
     1.0000   1.0000   1.0000   1.0000   1.0000   1.0000   1.0000   1.0000
     1.0000   1.0000   1.0000   1.0000   1.0000   1.0000   1.0000   1.0000
     1.0000   1.0000   1.0000   1.0000   1.0000   1.0000   1.0000   1.0000
     1.0210   1.0438   1.0383   0.0003   0.0000   0.0000   0.0000   0.0000
     0.0000   0.0000   0.0000   0.0000   0.0000   0.0000   0.0000   0.0000
     0.0000   0.0000   0.0000   0.0000   0.0000   0.0000   0.0000   0.0000
     0.0000   0.0000   0.0000   0.0000   0.0000   0.0000   0.0000   0.0000
     0.0000   0.0000   0.0000   0.0000   0.0000   0.0000   0.0000   0.0000

          k = 0.0833-0.6255 0.0000 ( 17393 PWs)   bands (ev):

   -50.0265 -50.0265 -49.9657 -49.9520 -49.9347 -49.9328 -49.8393 -49.8392
   -49.3837 -49.3837 -26.6844 -26.6715 -26.6220 -26.5747 -26.5549 -26.5502
   -26.4744 -26.4682 -26.3374 -26.3134 -26.3026 -26.2985 -26.2792 -26.2654
   -26.2438 -26.2281 -26.1876 -26.1839 -26.1628 -26.1481 -26.1361 -26.1276
   -26.0916 -26.0910 -25.8385 -25.8385 -25.7686 -25.7686 -25.5590 -25.5590
    -7.8229  -7.7532  -7.6246  -7.5045  -7.3966  -7.2407  -7.0866  -6.9950
    -6.9434  -0.0420   0.1574   0.4753   0.8312   1.1899   1.5298   1.7808
     1.9190   1.9849   2.3235   2.3427   2.4024   2.4191   2.4796   2.5161
     2.5854   2.6926   2.7789   2.8902   3.0941   3.1535   3.3570   3.5559
     3.6504   3.7367   3.8193   4.1221   5.5718   5.8584   6.3199   6.8297
     7.3934   7.9195   7.9214   7.9945   8.5558   8.9882   9.1966   9.2687
     9.3296   9.4106   9.4640   9.5133   9.5568   9.6526   9.7697   9.8122
     9.8831   9.9474   9.9721  10.0155  10.0358  10.0692  10.0949  10.1371
    10.1571  10.1703  10.1841  10.1895  10.2390  10.3692  10.5229  10.6948
    10.9958  11.4273  11.4720  11.5755  11.7685  11.8929  12.0998  12.2894

     occupation numbers 
     1.0000   1.0000   1.0000   1.0000   1.0000   1.0000   1.0000   1.0000
     1.0000   1.0000   1.0000   1.0000   1.0000   1.0000   1.0000   1.0000
     1.0000   1.0000   1.0000   1.0000   1.0000   1.0000   1.0000   1.0000
     1.0000   1.0000   1.0000   1.0000   1.0000   1.0000   1.0000   1.0000
     1.0000   1.0000   1.0000   1.0000   1.0000   1.0000   1.0000   1.0000
     1.0000   1.0000   1.0000   1.0000   1.0000   1.0000   1.0000   1.0000
     1.0000   1.0000   1.0000   1.0000   1.0000   1.0000   1.0000   1.0000
     1.0000   1.0000   1.0000   1.0000   1.0000   1.0000   1.0000   1.0000
     1.0000   1.0000   1.0000   1.0000   1.0000   1.0000   1.0000   1.0000
     1.0000   1.0000   1.0000   1.0000   1.0000   1.0000   1.0000   1.0000
     1.0015   0.0458   0.0437   0.0056   0.0000   0.0000   0.0000   0.0000
     0.0000   0.0000   0.0000   0.0000   0.0000   0.0000   0.0000   0.0000
     0.0000   0.0000   0.0000   0.0000   0.0000   0.0000   0.0000   0.0000
     0.0000   0.0000   0.0000   0.0000   0.0000   0.0000   0.0000   0.0000
     0.0000   0.0000   0.0000   0.0000   0.0000   0.0000   0.0000   0.0000

          k = 0.1667 0.2887 0.0000 ( 17381 PWs)   bands (ev):

   -50.0537 -50.0536 -50.0014 -49.9772 -49.9529 -49.9452 -49.8629 -49.8629
   -49.4056 -49.4056 -26.5390 -26.5350 -26.5082 -26.4865 -26.4742 -26.4423
   -26.3980 -26.3368 -26.3021 -26.2934 -26.2927 -26.2449 -26.2336 -26.2305
   -26.1928 -26.1767 -26.1601 -26.1583 -26.1505 -26.1485 -26.1222 -26.0914
   -26.0615 -26.0607 -25.7785 -25.7785 -25.6877 -25.6877 -25.5291 -25.5291
    -8.1042  -8.0359  -7.9099  -7.7901  -7.6899  -7.5546  -7.4212  -7.3469
    -7.3095   1.1868   1.1980   1.2452   1.2723   1.3737   1.5459   1.7248
     1.8959   2.0898   2.1088   2.4526   2.7072   2.7802   2.8401   2.9569
     3.0248   3.0630   3.1286   3.2122   3.2460   3.3160   3.3245   3.3804
     3.6295   3.7006   3.7392   3.7639   6.7859   6.8079   7.0330   7.0989
     7.2721   7.3408   7.6303   7.6623   7.9991   8.1723   8.2862   8.3628
     8.6335   8.8734   9.0432   9.1187   9.1618   9.1910   9.3452   9.3552
     9.4277   9.5287   9.5451   9.6264   9.6800   9.7294   9.8660   9.9206
     9.9319  10.0075  10.0688  10.1040  10.1401  10.3631  10.5166  10.5415
    10.5562  10.6079  10.7350  10.9562  11.2434  11.6323  11.6827  12.0949

     occupation numbers 
     1.0000   1.0000   1.0000   1.0000   1.0000   1.0000   1.0000   1.0000
     1.0000   1.0000   1.0000   1.0000   1.0000   1.0000   1.0000   1.0000
     1.0000   1.0000   1.0000   1.0000   1.0000   1.0000   1.0000   1.0000
     1.0000   1.0000   1.0000   1.0000   1.0000   1.0000   1.0000   1.0000
     1.0000   1.0000   1.0000   1.0000   1.0000   1.0000   1.0000   1.0000
     1.0000   1.0000   1.0000   1.0000   1.0000   1.0000   1.0000   1.0000
     1.0000   1.0000   1.0000   1.0000   1.0000   1.0000   1.0000   1.0000
     1.0000   1.0000   1.0000   1.0000   1.0000   1.0000   1.0000   1.0000
     1.0000   1.0000   1.0000   1.0000   1.0000   1.0000   1.0000   1.0000
     1.0000   1.0000   1.0000   1.0000   1.0000   1.0000   1.0000   1.0000
     1.0000   1.0002   1.0762   1.0323   0.0048   0.0000   0.0000   0.0000
     0.0000   0.0000   0.0000   0.0000   0.0000   0.0000   0.0000   0.0000
     0.0000   0.0000   0.0000   0.0000   0.0000   0.0000   0.0000   0.0000
     0.0000   0.0000   0.0000   0.0000   0.0000   0.0000   0.0000   0.0000
     0.0000   0.0000   0.0000   0.0000   0.0000   0.0000   0.0000   0.0000

          k = 0.1667 0.3849 0.0000 ( 17421 PWs)   bands (ev):

   -50.0380 -50.0380 -49.9819 -49.9625 -49.9421 -49.9374 -49.8493 -49.8493
   -49.3930 -49.3930 -26.5721 -26.5657 -26.5296 -26.5206 -26.4988 -26.4854
   -26.4585 -26.3890 -26.3596 -26.3483 -26.3168 -26.2745 -26.2663 -26.2453
   -26.2282 -26.2149 -26.1973 -26.1827 -26.1709 -26.1576 -26.1425 -26.1161
   -26.0998 -26.0947 -25.7748 -25.7748 -25.7535 -25.7535 -25.5677 -25.5677
    -7.7064  -7.6824  -7.6128  -7.5464  -7.5170  -7.4666  -7.3933  -7.3505
    -7.3430   0.9073   1.0286   1.2024   1.2402   1.2915   1.3884   1.5484
     1.7424   2.0860   2.1587   2.4679   2.5606   2.6405   2.7171   2.7677
     2.7875   2.8393   2.9139   2.9837   3.0716   3.0826   3.1245   3.1308
     3.1673   3.2714   3.4565   3.6566   6.6111   6.7207   7.0325   7.3460
     7.4226   7.5347   7.7639   7.9496   8.0590   8.3433   8.5295   8.7146
     8.7354   8.9947   9.1896   9.2917   9.4603   9.5049   9.5452   9.6039
     9.6435   9.6741   9.7464   9.7938   9.8797   9.9979  10.0596  10.1069
    10.1431  10.1653  10.1722  10.1756  10.4917  10.6135  10.6528  10.7832
    10.9075  11.0511  11.1166  11.2591  11.4372  11.7483  11.8074  11.9457

     occupation numbers 
     1.0000   1.0000   1.0000   1.0000   1.0000   1.0000   1.0000   1.0000
     1.0000   1.0000   1.0000   1.0000   1.0000   1.0000   1.0000   1.0000
     1.0000   1.0000   1.0000   1.0000   1.0000   1.0000   1.0000   1.0000
     1.0000   1.0000   1.0000   1.0000   1.0000   1.0000   1.0000   1.0000
     1.0000   1.0000   1.0000   1.0000   1.0000   1.0000   1.0000   1.0000
     1.0000   1.0000   1.0000   1.0000   1.0000   1.0000   1.0000   1.0000
     1.0000   1.0000   1.0000   1.0000   1.0000   1.0000   1.0000   1.0000
     1.0000   1.0000   1.0000   1.0000   1.0000   1.0000   1.0000   1.0000
     1.0000   1.0000   1.0000   1.0000   1.0000   1.0000   1.0000   1.0000
     1.0000   1.0000   1.0000   1.0000   1.0000   1.0000   1.0000   1.0003
     1.0037   1.0451   0.5992   0.0211   0.0006   0.0000   0.0000   0.0000
     0.0000   0.0000   0.0000   0.0000   0.0000   0.0000   0.0000   0.0000
     0.0000   0.0000   0.0000   0.0000   0.0000   0.0000   0.0000   0.0000
     0.0000   0.0000   0.0000   0.0000   0.0000   0.0000   0.0000   0.0000
     0.0000   0.0000   0.0000   0.0000   0.0000   0.0000   0.0000   0.0000

          k = 0.1667-0.6736 0.0000 ( 17428 PWs)   bands (ev):

   -50.0265 -50.0265 -49.9658 -49.9520 -49.9347 -49.9327 -49.8393 -49.8393
   -49.3837 -49.3837 -26.6330 -26.6226 -26.5768 -26.5432 -26.5282 -26.5156
   -26.4461 -26.4340 -26.3745 -26.3576 -26.3351 -26.3015 -26.2941 -26.2666
   -26.2610 -26.2336 -26.2151 -26.1931 -26.1742 -26.1613 -26.1589 -26.1420
   -26.1246 -26.1180 -25.8046 -25.8046 -25.7676 -25.7676 -25.5970 -25.5970
    -7.6550  -7.6126  -7.5205  -7.4423  -7.3912  -7.3026  -7.2046  -7.1537
    -7.1357   0.4250   0.5709   0.8008   1.0348   1.2565   1.4925   1.7284
     1.9280   2.0611   2.3297   2.3494   2.4299   2.5346   2.5869   2.6753
     2.7051   2.7369   2.7685   2.7954   2.8348   2.8739   2.9158   2.9912
     2.9993   3.1254   3.4310   3.7033   6.4444   6.5843   6.9219   7.3501
     7.7124   7.7453   7.8873   8.3612   8.4534   8.6264   8.8085   8.9073
     9.0776   9.1471   9.2803   9.4238   9.5145   9.5774   9.6650   9.7425
     9.8075   9.8388   9.9007   9.9529  10.0051  10.0528  10.1057  10.1452
    10.1635  10.1775  10.3109  10.3110  10.5884  10.6080  10.7374  10.9316
    11.0623  11.1872  11.4212  11.5966  11.6646  11.7829  11.8992  12.0924

     occupation numbers 
     1.0000   1.0000   1.0000   1.0000   1.0000   1.0000   1.0000   1.0000
     1.0000   1.0000   1.0000   1.0000   1.0000   1.0000   1.0000   1.0000
     1.0000   1.0000   1.0000   1.0000   1.0000   1.0000   1.0000   1.0000
     1.0000   1.0000   1.0000   1.0000   1.0000   1.0000   1.0000   1.0000
     1.0000   1.0000   1.0000   1.0000   1.0000   1.0000   1.0000   1.0000
     1.0000   1.0000   1.0000   1.0000   1.0000   1.0000   1.0000   1.0000
     1.0000   1.0000   1.0000   1.0000   1.0000   1.0000   1.0000   1.0000
     1.0000   1.0000   1.0000   1.0000   1.0000   1.0000   1.0000   1.0000
     1.0000   1.0000   1.0000   1.0000   1.0000   1.0000   1.0000   1.0000
     1.0000   1.0000   1.0000   1.0000   1.0000   1.0000   1.0000   1.0003
     0.8659   0.7012   0.0948   0.0000   0.0000   0.0000   0.0000   0.0000
     0.0000   0.0000   0.0000   0.0000   0.0000   0.0000   0.0000   0.0000
     0.0000   0.0000   0.0000   0.0000   0.0000   0.0000   0.0000   0.0000
     0.0000   0.0000   0.0000   0.0000   0.0000   0.0000   0.0000   0.0000
     0.0000   0.0000   0.0000   0.0000   0.0000   0.0000   0.0000   0.0000

          k = 0.1667-0.5774 0.0000 ( 17399 PWs)   bands (ev):

   -50.0223 -50.0223 -49.9590 -49.9486 -49.9322 -49.9313 -49.8356 -49.8356
   -49.3804 -49.3803 -26.6566 -26.6448 -26.5970 -26.5505 -26.5346 -26.5316
   -26.4565 -26.4519 -26.3639 -26.3607 -26.3315 -26.3289 -26.3065 -26.2694
   -26.2585 -26.2462 -26.2117 -26.2062 -26.1738 -26.1652 -26.1624 -26.1493
   -26.1316 -26.1309 -25.8214 -25.8214 -25.7666 -25.7666 -25.6079 -25.6079
    -7.6779  -7.6228  -7.5144  -7.4198  -7.3451  -7.2262  -7.1049  -7.0394
    -7.0084   0.2156   0.3831   0.6545   0.9579   1.2684   1.5751   1.8058
     1.9318   1.9996   2.3454   2.3885   2.4235   2.4685   2.5234   2.5553
     2.6234   2.6358   2.7192   2.7585   2.7991   2.8630   2.8662   2.9213
     2.9822   3.1269   3.4429   3.7365   6.3903   6.5371   6.8792   7.3137
     7.7905   7.8829   7.9140   8.3385   8.7786   9.0479   9.0707   9.1117
     9.1272   9.3306   9.3536   9.4408   9.4784   9.5079   9.5980   9.7156
     9.8333   9.9151   9.9206   9.9654   9.9915  10.0071  10.0926  10.1437
    10.1659  10.1703  10.3553  10.3555  10.5682  10.6201  10.7812  10.9890
    11.0807  11.2033  11.5121  11.5165  11.7056  11.8693  11.9963  12.2089

     occupation numbers 
     1.0000   1.0000   1.0000   1.0000   1.0000   1.0000   1.0000   1.0000
     1.0000   1.0000   1.0000   1.0000   1.0000   1.0000   1.0000   1.0000
     1.0000   1.0000   1.0000   1.0000   1.0000   1.0000   1.0000   1.0000
     1.0000   1.0000   1.0000   1.0000   1.0000   1.0000   1.0000   1.0000
     1.0000   1.0000   1.0000   1.0000   1.0000   1.0000   1.0000   1.0000
     1.0000   1.0000   1.0000   1.0000   1.0000   1.0000   1.0000   1.0000
     1.0000   1.0000   1.0000   1.0000   1.0000   1.0000   1.0000   1.0000
     1.0000   1.0000   1.0000   1.0000   1.0000   1.0000   1.0000   1.0000
     1.0000   1.0000   1.0000   1.0000   1.0000   1.0000   1.0000   1.0000
     1.0000   1.0000   1.0000   1.0000   1.0000   1.0000   1.0000   1.0001
     0.4543   0.1037   0.0522   0.0000   0.0000   0.0000   0.0000   0.0000
     0.0000   0.0000   0.0000   0.0000   0.0000   0.0000   0.0000   0.0000
     0.0000   0.0000   0.0000   0.0000   0.0000   0.0000   0.0000   0.0000
     0.0000   0.0000   0.0000   0.0000   0.0000   0.0000   0.0000   0.0000
     0.0000   0.0000   0.0000   0.0000   0.0000   0.0000   0.0000   0.0000

          k = 0.2500-0.7217 0.0000 ( 17473 PWs)   bands (ev):

   -50.0265 -50.0265 -49.9659 -49.9520 -49.9346 -49.9327 -49.8393 -49.8393
   -49.3838 -49.3838 -26.5892 -26.5852 -26.5520 -26.5321 -26.5276 -26.4853
   -26.4391 -26.4015 -26.3997 -26.3986 -26.3537 -26.2978 -26.2901 -26.2804
   -26.2543 -26.2542 -26.2285 -26.2088 -26.1863 -26.1759 -26.1702 -26.1509
   -26.1342 -26.1221 -25.7799 -25.7799 -25.7690 -25.7690 -25.6219 -25.6219
    -7.4668  -7.4662  -7.4222  -7.3908  -7.3671  -7.3534  -7.3532  -7.3116
    -7.3116   0.8719   0.8983   0.9861   1.1002   1.2431   1.4458   1.6841
     1.9311   2.1884   2.3441   2.3639   2.4209   2.4903   2.5057   2.5297
     2.5580   2.5981   2.6428   2.6453   2.7430   2.7742   2.9030   2.9697
     3.0754   3.1198   3.1994   3.2026   7.1211   7.1286   7.4200   7.4605
     7.5935   7.6621   7.9053   7.9853   8.2976   8.3981   8.6525   8.8762
     9.0335   9.0386   9.2191   9.4559   9.5353   9.5553   9.6601   9.6776
     9.6801   9.7707   9.8002   9.8729   9.9918  10.0781  10.1169  10.1282
    10.1522  10.1764  10.3131  10.3132  10.8199  10.9640  10.9841  11.1114
    11.1971  11.3519  11.4121  11.6031  11.6086  11.6895  11.7406  11.7941

     occupation numbers 
     1.0000   1.0000   1.0000   1.0000   1.0000   1.0000   1.0000   1.0000
     1.0000   1.0000   1.0000   1.0000   1.0000   1.0000   1.0000   1.0000
     1.0000   1.0000   1.0000   1.0000   1.0000   1.0000   1.0000   1.0000
     1.0000   1.0000   1.0000   1.0000   1.0000   1.0000   1.0000   1.0000
     1.0000   1.0000   1.0000   1.0000   1.0000   1.0000   1.0000   1.0000
     1.0000   1.0000   1.0000   1.0000   1.0000   1.0000   1.0000   1.0000
     1.0000   1.0000   1.0000   1.0000   1.0000   1.0000   1.0000   1.0000
     1.0000   1.0000   1.0000   1.0000   1.0000   1.0000   1.0000   1.0000
     1.0000   1.0000   1.0000   1.0000   1.0000   1.0000   1.0000   1.0000
     1.0000   1.0000   1.0000   1.0000   1.0000   1.0000   1.0035   1.0103
     1.0807   1.0328   0.0639   0.0074   0.0000   0.0000   0.0000   0.0000
     0.0000   0.0000   0.0000   0.0000   0.0000   0.0000   0.0000   0.0000
     0.0000   0.0000   0.0000   0.0000   0.0000   0.0000   0.0000   0.0000
     0.0000   0.0000   0.0000   0.0000   0.0000   0.0000   0.0000   0.0000
     0.0000   0.0000   0.0000   0.0000   0.0000   0.0000   0.0000   0.0000

          k = 0.2500-0.6255 0.0000 ( 17403 PWs)   bands (ev):

   -50.0199 -50.0199 -49.9547 -49.9470 -49.9307 -49.9304 -49.8335 -49.8335
   -49.3784 -49.3784 -26.6009 -26.5921 -26.5512 -26.5274 -26.5164 -26.4873
   -26.4513 -26.4486 -26.4078 -26.3952 -26.3845 -26.3417 -26.3400 -26.3074
   -26.2641 -26.2549 -26.2360 -26.2178 -26.2093 -26.1925 -26.1729 -26.1598
   -26.1476 -26.1446 -25.7872 -25.7872 -25.7661 -25.7661 -25.6615 -25.6615
    -7.4759  -7.4536  -7.3862  -7.3272  -7.3077  -7.2659  -7.2029  -7.1633
    -7.1602   0.7192   0.8182   0.9818   1.1499   1.3224   1.5220   1.7140
     1.8773   2.0374   2.1217   2.2609   2.2893   2.3351   2.3927   2.4114
     2.4581   2.5059   2.5287   2.6356   2.6814   2.7527   2.7793   2.8390
     2.8607   2.9693   3.1347   3.2663   7.1854   7.2038   7.5031   7.7010
     7.7614   7.9184   8.3036   8.3681   8.5554   8.6994   8.8467   8.9859
     9.1169   9.1896   9.2540   9.3243   9.3713   9.4212   9.4880   9.6073
     9.6575   9.7696   9.7909   9.8824  10.0014  10.0119  10.0799  10.1114
    10.1192  10.1596  10.3397  10.3398  11.0201  11.0516  11.1408  11.2038
    11.3150  11.4337  11.4901  11.6193  11.7146  11.7347  11.8649  11.9423

     occupation numbers 
     1.0000   1.0000   1.0000   1.0000   1.0000   1.0000   1.0000   1.0000
     1.0000   1.0000   1.0000   1.0000   1.0000   1.0000   1.0000   1.0000
     1.0000   1.0000   1.0000   1.0000   1.0000   1.0000   1.0000   1.0000
     1.0000   1.0000   1.0000   1.0000   1.0000   1.0000   1.0000   1.0000
     1.0000   1.0000   1.0000   1.0000   1.0000   1.0000   1.0000   1.0000
     1.0000   1.0000   1.0000   1.0000   1.0000   1.0000   1.0000   1.0000
     1.0000   1.0000   1.0000   1.0000   1.0000   1.0000   1.0000   1.0000
     1.0000   1.0000   1.0000   1.0000   1.0000   1.0000   1.0000   1.0000
     1.0000   1.0000   1.0000   1.0000   1.0000   1.0000   1.0000   1.0000
     1.0000   1.0000   1.0000   1.0000   1.0000   1.0000   1.0263   0.9141
     0.6130   0.0470   0.0000   0.0000   0.0000   0.0000   0.0000   0.0000
     0.0000   0.0000   0.0000   0.0000   0.0000   0.0000   0.0000   0.0000
     0.0000   0.0000   0.0000   0.0000   0.0000   0.0000   0.0000   0.0000
     0.0000   0.0000   0.0000   0.0000   0.0000   0.0000   0.0000   0.0000
     0.0000   0.0000   0.0000   0.0000   0.0000   0.0000   0.0000   0.0000

          k = 0.3333-0.5774 0.0000 ( 17397 PWs)   bands (ev):

   -50.0175 -50.0175 -49.9478 -49.9478 -49.9295 -49.9295 -49.8313 -49.8313
   -49.3764 -49.3764 -26.5404 -26.5404 -26.5401 -26.5300 -26.5077 -26.5077
   -26.4854 -26.4400 -26.4400 -26.3899 -26.3884 -26.3884 -26.3340 -26.3340
   -26.3041 -26.3018 -26.2191 -26.2191 -26.1972 -26.1931 -26.1931 -26.1816
   -26.1501 -26.1501 -25.7665 -25.7665 -25.7609 -25.7609 -25.7047 -25.7047
    -7.3526  -7.3526  -7.2939  -7.2884  -7.2884  -7.2416  -7.2416  -7.2194
    -7.2194   1.2451   1.2496   1.2770   1.2770   1.2934   1.2934   1.3810
     1.3810   1.8822   1.8823   2.2298   2.2562   2.2562   2.2904   2.3260
     2.3260   2.4154   2.4154   2.7941   2.7941   2.7966   2.8488   2.8586
     2.8586   2.8840   2.9458   2.9458   7.4573   7.4573   7.7898   7.7898
     8.3367   8.3583   8.3583   8.4659   8.5454   8.5454   8.6472   8.9249
     8.9249   9.0485   9.2061   9.2061   9.2649   9.4230   9.4230   9.4869
     9.5431   9.6703   9.6703  10.0199  10.0251  10.0251  10.0683  10.0896
    10.0896  10.1034  10.3210  10.3210  11.2662  11.2721  11.2721  11.3574
    11.3675  11.3675  11.4516  11.4673  11.4673  12.2373  12.2373  12.2789

     occupation numbers 
     1.0000   1.0000   1.0000   1.0000   1.0000   1.0000   1.0000   1.0000
     1.0000   1.0000   1.0000   1.0000   1.0000   1.0000   1.0000   1.0000
     1.0000   1.0000   1.0000   1.0000   1.0000   1.0000   1.0000   1.0000
     1.0000   1.0000   1.0000   1.0000   1.0000   1.0000   1.0000   1.0000
     1.0000   1.0000   1.0000   1.0000   1.0000   1.0000   1.0000   1.0000
     1.0000   1.0000   1.0000   1.0000   1.0000   1.0000   1.0000   1.0000
     1.0000   1.0000   1.0000   1.0000   1.0000   1.0000   1.0000   1.0000
     1.0000   1.0000   1.0000   1.0000   1.0000   1.0000   1.0000   1.0000
     1.0000   1.0000   1.0000   1.0000   1.0000   1.0000   1.0000   1.0000
     1.0000   1.0000   1.0000   1.0000   1.0096   1.0096   0.4579   0.4579
     0.0000   0.0000   0.0000   0.0000   0.0000   0.0000   0.0000   0.0000
     0.0000   0.0000   0.0000   0.0000   0.0000   0.0000   0.0000   0.0000
     0.0000   0.0000   0.0000   0.0000   0.0000   0.0000   0.0000   0.0000
     0.0000   0.0000   0.0000   0.0000   0.0000   0.0000   0.0000   0.0000
     0.0000   0.0000   0.0000   0.0000   0.0000   0.0000   0.0000   0.0000

     the Fermi energy is     7.8009 ev

!    total energy              =   -1383.70046333 Ry
     estimated scf accuracy    <          3.7E-09 Ry
     smearing contrib. (-TS)   =      -0.00064323 Ry
     internal energy E=F+TS    =   -1383.69982011 Ry

     The total energy is F=E-TS. E is the sum of the following terms:
     one-electron contribution =  -31059.56127542 Ry
     hartree contribution      =   15567.97269043 Ry
     xc contribution           =    -238.23668814 Ry
     ewald contribution        =   14346.12545302 Ry

     convergence has been achieved in  13 iterations

     negative rho (up, down):  2.201E-04 0.000E+00

     Forces acting on atoms (cartesian axes, Ry/au):

     atom    1 type  1   force =     0.00000000    0.00000000    0.03270934
     atom    2 type  2   force =     0.00000000    0.00000000   -0.02260271
     atom    3 type  1   force =     0.00000000    0.00000000   -0.01820416
     atom    4 type  2   force =    -0.00000000    0.00000000   -0.00035058
     atom    5 type  1   force =     0.00000000   -0.00000000    0.01039613
     atom    6 type  2   force =     0.00000000   -0.00000000   -0.00224444
     atom    7 type  1   force =     0.00000000    0.00000000   -0.00815394
     atom    8 type  2   force =    -0.00000000    0.00000000    0.00205275
     atom    9 type  1   force =    -0.00000000    0.00000000    0.00705307
     atom   10 type  2   force =     0.00000000    0.00000000    0.00000000
     atom   11 type  1   force =     0.00000000   -0.00000000   -0.00705307
     atom   12 type  2   force =     0.00000000    0.00000000   -0.00205275
     atom   13 type  1   force =     0.00000000    0.00000000    0.00815394
     atom   14 type  2   force =    -0.00000000    0.00000000    0.00224444
     atom   15 type  1   force =    -0.00000000   -0.00000000   -0.01039613
     atom   16 type  2   force =     0.00000000   -0.00000000    0.00035058
     atom   17 type  1   force =     0.00000000    0.00000000    0.01820416
     atom   18 type  2   force =    -0.00000000   -0.00000000    0.02260271
     atom   19 type  1   force =     0.00000000   -0.00000000   -0.03270934
     The non-local contrib.  to forces
     atom    1 type  1   force =     0.00000000    0.00000000    0.05750001
     atom    2 type  2   force =     0.00000000   -0.00000000    0.01708385
     atom    3 type  1   force =     0.00000000    0.00000000   -0.01166879
     atom    4 type  2   force =    -0.00000000    0.00000000    0.00823434
     atom    5 type  1   force =     0.00000000    0.00000000    0.00642951
     atom    6 type  2   force =     0.00000000   -0.00000000   -0.00533168
     atom    7 type  1   force =     0.00000000    0.00000000   -0.00392254
     atom    8 type  2   force =     0.00000000    0.00000000   -0.00121319
     atom    9 type  1   force =     0.00000000    0.00000000    0.00173455
     atom   10 type  2   force =     0.00000000    0.00000000    0.00000000
     atom   11 type  1   force =     0.00000000    0.00000000   -0.00173455
     atom   12 type  2   force =     0.00000000    0.00000000    0.00121319
     atom   13 type  1   force =     0.00000000   -0.00000000    0.00392254
     atom   14 type  2   force =     0.00000000    0.00000000    0.00533168
     atom   15 type  1   force =     0.00000000    0.00000000   -0.00642951
     atom   16 type  2   force =     0.00000000   -0.00000000   -0.00823434
     atom   17 type  1   force =     0.00000000   -0.00000000    0.01166879
     atom   18 type  2   force =     0.00000000    0.00000000   -0.01708385
     atom   19 type  1   force =     0.00000000    0.00000000   -0.05750001
     The ionic contribution  to forces
     atom    1 type  1   force =     0.00000000   -0.00000000 -356.61972414
     atom    2 type  2   force =    -0.00000000    0.00000000 -133.25817316
     atom    3 type  1   force =     0.00000000   -0.00000000 -279.43476184
     atom    4 type  2   force =    -0.00000000   -0.00000000  -99.91876670
     atom    5 type  1   force =    -0.00000000    0.00000000 -200.17524949
     atom    6 type  2   force =     0.00000000   -0.00000000  -66.72019190
     atom    7 type  1   force =    -0.00000000   -0.00000000 -119.96357589
     atom    8 type  2   force =    -0.00000000    0.00000000  -33.32363707
     atom    9 type  1   force =     0.00000000   -0.00000000  -39.98978678
     atom   10 type  2   force =    -0.00000000   -0.00000000   -0.00000000
     atom   11 type  1   force =    -0.00000000    0.00000000   39.98978678
     atom   12 type  2   force =     0.00000000   -0.00000000   33.32363707
     atom   13 type  1   force =    -0.00000000   -0.00000000  119.96357589
     atom   14 type  2   force =    -0.00000000    0.00000000   66.72019190
     atom   15 type  1   force =     0.00000000   -0.00000000  200.17524949
     atom   16 type  2   force =    -0.00000000   -0.00000000   99.91876670
     atom   17 type  1   force =    -0.00000000    0.00000000  279.43476184
     atom   18 type  2   force =     0.00000000   -0.00000000  133.25817316
     atom   19 type  1   force =    -0.00000000    0.00000000  356.61972414
     The local contribution  to forces
     atom    1 type  1   force =     0.00000000   -0.00000000  356.60540213
     atom    2 type  2   force =    -0.00000001    0.00000001  133.21881767
     atom    3 type  1   force =     0.00000006   -0.00000004  279.42705738
     atom    4 type  2   force =     0.00000000   -0.00000000   99.91030322
     atom    5 type  1   force =    -0.00000005    0.00000006  200.17966059
     atom    6 type  2   force =     0.00000001   -0.00000001   66.72333807
     atom    7 type  1   force =     0.00000000   -0.00000000  119.95961582
     atom    8 type  2   force =    -0.00000001    0.00000001   33.32690524
     atom    9 type  1   force =     0.00000006   -0.00000004   39.99522936
     atom   10 type  2   force =    -0.00000000    0.00000000    0.00000000
     atom   11 type  1   force =    -0.00000005    0.00000006  -39.99522936
     atom   12 type  2   force =     0.00000001   -0.00000001  -33.32690524
     atom   13 type  1   force =     0.00000000    0.00000000 -119.95961582
     atom   14 type  2   force =    -0.00000001    0.00000001  -66.72333807
     atom   15 type  1   force =     0.00000006   -0.00000004 -200.17966059
     atom   16 type  2   force =    -0.00000000    0.00000000  -99.91030322
     atom   17 type  1   force =    -0.00000005    0.00000006 -279.42705738
     atom   18 type  2   force =     0.00000001   -0.00000001 -133.21881767
     atom   19 type  1   force =    -0.00000000    0.00000000 -356.60540213
     The core correction contribution to forces
     atom    1 type  1   force =    -0.00000000    0.00000000   -0.01040276
     atom    2 type  2   force =     0.00000000   -0.00000000   -0.00028332
     atom    3 type  1   force =    -0.00000000    0.00000000    0.00124471
     atom    4 type  2   force =    -0.00000000    0.00000000   -0.00007811
     atom    5 type  1   force =     0.00000000   -0.00000000   -0.00026115
     atom    6 type  2   force =    -0.00000000    0.00000000    0.00001839
     atom    7 type  1   force =     0.00000000   -0.00000000   -0.00011573
     atom    8 type  2   force =     0.00000000   -0.00000000    0.00003491
     atom    9 type  1   force =    -0.00000000    0.00000000   -0.00009927
     atom   10 type  2   force =     0.00000000    0.00000000   -0.00000000
     atom   11 type  1   force =     0.00000000   -0.00000000    0.00009927
     atom   12 type  2   force =    -0.00000000    0.00000000   -0.00003491
     atom   13 type  1   force =    -0.00000000    0.00000000    0.00011573
     atom   14 type  2   force =     0.00000000   -0.00000000   -0.00001839
     atom   15 type  1   force =    -0.00000000    0.00000000    0.00026115
     atom   16 type  2   force =     0.00000000   -0.00000000    0.00007811
     atom   17 type  1   force =     0.00000000   -0.00000000   -0.00124471
     atom   18 type  2   force =    -0.00000000    0.00000000    0.00028332
     atom   19 type  1   force =     0.00000000   -0.00000000    0.01040276
     The Hubbard contrib.    to forces
     atom    1 type  1   force =     0.00000000    0.00000000    0.00000000
     atom    2 type  2   force =     0.00000000    0.00000000    0.00000000
     atom    3 type  1   force =     0.00000000    0.00000000    0.00000000
     atom    4 type  2   force =     0.00000000    0.00000000    0.00000000
     atom    5 type  1   force =     0.00000000    0.00000000    0.00000000
     atom    6 type  2   force =     0.00000000    0.00000000    0.00000000
     atom    7 type  1   force =     0.00000000    0.00000000    0.00000000
     atom    8 type  2   force =     0.00000000    0.00000000    0.00000000
     atom    9 type  1   force =     0.00000000    0.00000000    0.00000000
     atom   10 type  2   force =     0.00000000    0.00000000    0.00000000
     atom   11 type  1   force =     0.00000000    0.00000000    0.00000000
     atom   12 type  2   force =     0.00000000    0.00000000    0.00000000
     atom   13 type  1   force =     0.00000000    0.00000000    0.00000000
     atom   14 type  2   force =     0.00000000    0.00000000    0.00000000
     atom   15 type  1   force =     0.00000000    0.00000000    0.00000000
     atom   16 type  2   force =     0.00000000    0.00000000    0.00000000
     atom   17 type  1   force =     0.00000000    0.00000000    0.00000000
     atom   18 type  2   force =     0.00000000    0.00000000    0.00000000
     atom   19 type  1   force =     0.00000000    0.00000000    0.00000000
     The SCF correction term to forces
     atom    1 type  1   force =     0.00000000   -0.00000000   -0.00006591
     atom    2 type  2   force =    -0.00000000    0.00000000   -0.00004774
     atom    3 type  1   force =    -0.00000000    0.00000000   -0.00007562
     atom    4 type  2   force =     0.00000000    0.00000000   -0.00004334
     atom    5 type  1   force =     0.00000000   -0.00000000   -0.00018333
     atom    6 type  2   force =     0.00000000   -0.00000000   -0.00007733
     atom    7 type  1   force =     0.00000000   -0.00000000   -0.00000000
     atom    8 type  2   force =     0.00000000    0.00000000   -0.00000000
     atom    9 type  1   force =    -0.00000000    0.00000000   -0.00000000
     atom   10 type  2   force =    -0.00000000    0.00000000   -0.00000000
     atom   11 type  1   force =     0.00000000   -0.00000000    0.00000000
     atom   12 type  2   force =    -0.00000000    0.00000000    0.00000000
     atom   13 type  1   force =    -0.00000000    0.00000000    0.00000000
     atom   14 type  2   force =    -0.00000000    0.00000000    0.00007733
     atom   15 type  1   force =    -0.00000000    0.00000000    0.00018333
     atom   16 type  2   force =    -0.00000000    0.00000000    0.00004334
     atom   17 type  1   force =     0.00000000   -0.00000000    0.00007562
     atom   18 type  2   force =     0.00000000   -0.00000000    0.00004774
     atom   19 type  1   force =    -0.00000000    0.00000000    0.00006591

     Total force =     0.063646     Total SCF correction =     0.000328


     Computing stress (Cartesian axis) and pressure


     negative rho (up, down):  2.201E-04 0.000E+00
          total   stress  (Ry/bohr**3)                   (kbar)     P=       -3.68
  -0.00001181   0.00000000  -0.00000000           -1.74        0.00       -0.00
   0.00000000  -0.00001181   0.00000000            0.00       -1.74        0.00
   0.00000000   0.00000000  -0.00005135            0.00        0.00       -7.55

     kinetic stress (kbar)  23055.36     -0.00      0.00
                               -0.00  23055.36      0.00
                                0.00      0.00  22950.60

     local   stress (kbar)**********      0.00     -0.00
                                0.00**********      0.00
                               -0.00      0.002046577.91

     nonloc. stress (kbar)      1.24     -0.00      0.00
                               -0.00      1.24      0.00
                                0.00     -0.00     48.77

     hartree stress (kbar)1024433.90      0.00     -0.00
                                0.001024433.90     -0.00
                               -0.00     -0.00**********

     exc-cor stress (kbar)  -1519.33     -0.00     -0.00
                               -0.00  -1519.33      0.00
                               -0.00      0.00  -1522.77

     corecor stress (kbar)  -3162.03      0.00     -0.00
                                0.00  -3162.03      0.00
                               -0.00      0.00  -3161.76

     ewald   stress (kbar)1002125.41     -0.00      0.00
                               -0.001002125.41     -0.00
                                0.00     -0.00**********

     hubbard stress (kbar)      0.00      0.00      0.00
                                0.00      0.00      0.00
                                0.00      0.00      0.00

     DFT-D   stress (kbar)      0.00      0.00      0.00
                                0.00      0.00      0.00
                                0.00      0.00      0.00

     XDM     stress (kbar)      0.00      0.00      0.00
                                0.00      0.00      0.00
                                0.00      0.00      0.00

     dft-nl  stress (kbar)      0.00      0.00      0.00
                                0.00      0.00      0.00
                                0.00      0.00      0.00

     TS-vdW  stress (kbar)      0.00      0.00      0.00
                                0.00      0.00      0.00
                                0.00      0.00      0.00


     Energy error            =      7.9E-03
     Gradient error          =      3.3E-02

     number of scf cycles    =   2
     number of bfgs steps    =   1

     energy   old            =   -1383.6925658631 Ry
     energy   new            =   -1383.7004633332 Ry

     CASE: energy  _new < energy  _old

     new trust radius        =       0.0526749285 bohr
     new conv_thr            =       0.0000000033 Ry


ATOMIC_POSITIONS (angstrom)
Ti            0.0000000000        0.0000000000       10.0532147097
N             1.5004805900        0.8663028720       11.1891448526
Ti            3.0009611790        1.7326057450       12.4172148503
N            -0.0000000000        0.0000000000       13.6764937057
Ti            1.5004805900        0.8663028720       14.9195053110
N             3.0009611790        1.7326057450       16.1213990178
Ti            0.0000000000        0.0000000000       17.3508236270    0   0   0
N             1.5004805900        0.8663028720       18.5759608990    0   0   0
Ti            3.0009611790        1.7326057450       19.8010981700    0   0   0
N             0.0000000000        0.0000000000       21.0262354410    0   0   0
Ti            1.5004805900        0.8663028720       22.2513727120    0   0   0
N             3.0009611790        1.7326057450       23.4765099830    0   0   0
Ti            0.0000000000        0.0000000000       24.7016472550    0   0   0
N             1.5004805900        0.8663028720       25.9310718642
Ti            3.0009611790        1.7326057450       27.1329655710
N             0.0000000000       -0.0000000000       28.3759771763
Ti            1.5004805900        0.8663028720       29.6352560317
N             3.0009611790        1.7326057450       30.8633260294
Ti            0.0000000000       -0.0000000000       31.9992561723



     Writing output data file ./tmp/tin111.save/
     NEW-OLD atomic charge density approx. for the potential

     Check: negative core charge=   -0.000003

     negative rho (up, down):  2.062E-04 0.000E+00

     total cpu time spent up to now is      938.4 secs

     Self-consistent Calculation

     iteration #  1     ecut=    60.00 Ry     beta= 0.20
     Davidson diagonalization with overlap
     ethr =  1.00E-06,  avg # of iterations =  8.2

     negative rho (up, down):  2.086E-04 0.000E+00

     total cpu time spent up to now is      993.5 secs

     total energy              =   -1383.69936688 Ry
     estimated scf accuracy    <       0.01774962 Ry

     iteration #  2     ecut=    60.00 Ry     beta= 0.20
     Davidson diagonalization with overlap
     ethr =  1.08E-05,  avg # of iterations = 10.7

     negative rho (up, down):  3.148E-04 0.000E+00

     total cpu time spent up to now is     1021.5 secs

     total energy              =   -1383.59709537 Ry
     estimated scf accuracy    <      21.66834656 Ry

     iteration #  3     ecut=    60.00 Ry     beta= 0.20
     Davidson diagonalization with overlap
     ethr =  1.08E-05,  avg # of iterations =  9.1

     negative rho (up, down):  3.306E-04 0.000E+00

     total cpu time spent up to now is     1045.7 secs

     total energy              =   -1383.70413701 Ry
     estimated scf accuracy    <       0.01267083 Ry

     iteration #  4     ecut=    60.00 Ry     beta= 0.20
     Davidson diagonalization with overlap
     ethr =  7.68E-06,  avg # of iterations =  1.9

     negative rho (up, down):  3.388E-04 0.000E+00

     total cpu time spent up to now is     1064.2 secs

     total energy              =   -1383.70443049 Ry
     estimated scf accuracy    <       0.02084121 Ry

     iteration #  5     ecut=    60.00 Ry     beta= 0.20
     Davidson diagonalization with overlap
     ethr =  7.68E-06,  avg # of iterations =  1.0

     negative rho (up, down):  3.148E-04 0.000E+00

     total cpu time spent up to now is     1082.2 secs

     total energy              =   -1383.70497421 Ry
     estimated scf accuracy    <       0.00125968 Ry

     iteration #  6     ecut=    60.00 Ry     beta= 0.20
     Davidson diagonalization with overlap
     ethr =  7.63E-07,  avg # of iterations =  1.1

     negative rho (up, down):  3.029E-04 0.000E+00

     total cpu time spent up to now is     1099.7 secs

     total energy              =   -1383.70499360 Ry
     estimated scf accuracy    <       0.00026229 Ry

     iteration #  7     ecut=    60.00 Ry     beta= 0.20
     Davidson diagonalization with overlap
     ethr =  1.59E-07,  avg # of iterations =  1.1

     negative rho (up, down):  2.243E-04 0.000E+00

     total cpu time spent up to now is     1117.9 secs

     total energy              =   -1383.70499448 Ry
     estimated scf accuracy    <       0.00012654 Ry

     iteration #  8     ecut=    60.00 Ry     beta= 0.20
     Davidson diagonalization with overlap
     ethr =  7.67E-08,  avg # of iterations =  2.1

     negative rho (up, down):  2.265E-04 0.000E+00

     total cpu time spent up to now is     1139.5 secs

     total energy              =   -1383.70500516 Ry
     estimated scf accuracy    <       0.00001136 Ry

     iteration #  9     ecut=    60.00 Ry     beta= 0.20
     Davidson diagonalization with overlap
     ethr =  6.89E-09,  avg # of iterations =  2.3

     negative rho (up, down):  2.335E-04 0.000E+00

     total cpu time spent up to now is     1160.7 secs

     total energy              =   -1383.70500574 Ry
     estimated scf accuracy    <       0.00000220 Ry

     iteration # 10     ecut=    60.00 Ry     beta= 0.20
     Davidson diagonalization with overlap
     ethr =  1.33E-09,  avg # of iterations =  2.7

     negative rho (up, down):  2.330E-04 0.000E+00

     total cpu time spent up to now is     1181.8 secs

     total energy              =   -1383.70500612 Ry
     estimated scf accuracy    <       0.00000048 Ry

     iteration # 11     ecut=    60.00 Ry     beta= 0.20
     Davidson diagonalization with overlap
     ethr =  2.93E-10,  avg # of iterations =  3.6

     negative rho (up, down):  2.283E-04 0.000E+00

     total cpu time spent up to now is     1203.2 secs

     total energy              =   -1383.70500635 Ry
     estimated scf accuracy    <       0.00000011 Ry

     iteration # 12     ecut=    60.00 Ry     beta= 0.20
     Davidson diagonalization with overlap
     ethr =  6.91E-11,  avg # of iterations =  2.9

     negative rho (up, down):  2.257E-04 0.000E+00

     total cpu time spent up to now is     1225.0 secs

     total energy              =   -1383.70500648 Ry
     estimated scf accuracy    <       0.00000002 Ry

     iteration # 13     ecut=    60.00 Ry     beta= 0.20
     Davidson diagonalization with overlap
     ethr =  1.20E-11,  avg # of iterations =  3.9

     negative rho (up, down):  2.192E-04 0.000E+00

     total cpu time spent up to now is     1248.3 secs

     End of self-consistent calculation

          k = 0.0000 0.0000 0.0000 ( 17133 PWs)   bands (ev):

   -50.1126 -50.1124 -50.0602 -50.0223 -49.9832 -49.9733 -49.8692 -49.8692
   -49.4107 -49.4106 -26.6959 -26.6457 -26.5508 -26.4121 -26.3051 -26.2430
   -26.1768 -26.1768 -26.1767 -26.1767 -26.1620 -26.1139 -26.1139 -26.0930
   -26.0900 -26.0900 -26.0612 -26.0612 -26.0574 -26.0574 -25.9391 -25.9391
   -25.9391 -25.9391 -25.7652 -25.7652 -25.4296 -25.4296 -25.4296 -25.4296
    -9.2707  -9.1042  -8.8358  -8.5505  -8.2467  -7.8494  -7.4420  -7.1334
    -6.9289  -0.1884   0.1452   0.6458   1.2311   1.9526   2.3526   2.3526
     2.5167   2.5167   2.7847   2.7847   2.8493   3.0501   3.0501   3.3679
     3.3679   3.7820   3.8899   3.8899   4.5192   4.5192   4.6248   5.0767
     5.0767   5.3575   5.5281   5.5281   6.9609   7.0275   7.2392   7.2392
     7.3392   7.4272   7.4272   7.5464   7.6902   7.6902   7.8069   7.9620
     7.9620   8.0965   8.2314   8.2314   8.4303   8.4908   8.4908   8.5863
     8.5863   8.8139   8.8622   8.8622   8.9939   8.9939   9.2166   9.3121
     9.3121   9.4031   9.4031   9.5857   9.5946   9.5946   9.6102   9.6102
     9.8788  10.0680  10.1212  10.1212  10.8739  10.8739  11.6188  11.6188

     occupation numbers 
     1.0000   1.0000   1.0000   1.0000   1.0000   1.0000   1.0000   1.0000
     1.0000   1.0000   1.0000   1.0000   1.0000   1.0000   1.0000   1.0000
     1.0000   1.0000   1.0000   1.0000   1.0000   1.0000   1.0000   1.0000
     1.0000   1.0000   1.0000   1.0000   1.0000   1.0000   1.0000   1.0000
     1.0000   1.0000   1.0000   1.0000   1.0000   1.0000   1.0000   1.0000
     1.0000   1.0000   1.0000   1.0000   1.0000   1.0000   1.0000   1.0000
     1.0000   1.0000   1.0000   1.0000   1.0000   1.0000   1.0000   1.0000
     1.0000   1.0000   1.0000   1.0000   1.0000   1.0000   1.0000   1.0000
     1.0000   1.0000   1.0000   1.0000   1.0000   1.0000   1.0000   1.0000
     1.0000   1.0000   1.0000   1.0000   1.0000   1.0000   1.0000   1.0000
     1.0003   1.0052   1.0052   1.0579   0.9287   0.9287   0.3374   0.0121
     0.0121   0.0001   0.0000   0.0000   0.0000   0.0000   0.0000   0.0000
     0.0000   0.0000   0.0000   0.0000   0.0000   0.0000   0.0000   0.0000
     0.0000   0.0000   0.0000   0.0000   0.0000   0.0000   0.0000   0.0000
     0.0000   0.0000   0.0000   0.0000   0.0000   0.0000   0.0000   0.0000

          k = 0.0000 0.0962 0.0000 ( 17192 PWs)   bands (ev):

   -50.1079 -50.1077 -50.0550 -50.0180 -49.9796 -49.9702 -49.8649 -49.8649
   -49.4067 -49.4067 -26.6801 -26.6329 -26.5426 -26.4104 -26.3094 -26.2493
   -26.2026 -26.2022 -26.1848 -26.1847 -26.1717 -26.1430 -26.1245 -26.1137
   -26.0995 -26.0970 -26.0867 -26.0795 -26.0662 -26.0608 -25.9724 -25.9722
   -25.9460 -25.9460 -25.7607 -25.7606 -25.4587 -25.4587 -25.4359 -25.4359
    -9.1532  -8.9948  -8.7390  -8.4714  -8.1894  -7.8170  -7.4376  -7.1572
    -6.9749  -0.0405   0.2654   0.7203   1.2426   1.8655   2.3513   2.4020
     2.5095   2.5562   2.5599   2.7894   2.8175   2.9835   3.0676   3.3113
     3.3651   3.4506   3.8557   3.9847   4.0860   4.4305   4.5576   4.6720
     4.9037   4.9688   5.1652   5.2435   6.8980   6.9449   7.0831   7.2753
     7.3884   7.5035   7.5713   7.5818   7.7785   7.8305   7.8497   8.0257
     8.0990   8.1174   8.2902   8.3350   8.4368   8.5471   8.6480   8.6685
     8.7573   8.9261   8.9840   9.0127   9.0561   9.0671   9.2914   9.3649
     9.3780   9.4028   9.4693   9.5672   9.6430   9.6711   9.7755   9.8072
    10.0088  10.0830  10.1890  10.2453  10.7845  10.9198  11.4592  11.6431

     occupation numbers 
     1.0000   1.0000   1.0000   1.0000   1.0000   1.0000   1.0000   1.0000
     1.0000   1.0000   1.0000   1.0000   1.0000   1.0000   1.0000   1.0000
     1.0000   1.0000   1.0000   1.0000   1.0000   1.0000   1.0000   1.0000
     1.0000   1.0000   1.0000   1.0000   1.0000   1.0000   1.0000   1.0000
     1.0000   1.0000   1.0000   1.0000   1.0000   1.0000   1.0000   1.0000
     1.0000   1.0000   1.0000   1.0000   1.0000   1.0000   1.0000   1.0000
     1.0000   1.0000   1.0000   1.0000   1.0000   1.0000   1.0000   1.0000
     1.0000   1.0000   1.0000   1.0000   1.0000   1.0000   1.0000   1.0000
     1.0000   1.0000   1.0000   1.0000   1.0000   1.0000   1.0000   1.0000
     1.0000   1.0000   1.0000   1.0000   1.0000   1.0000   1.0000   1.0000
     1.0016   1.0303   1.0738   1.0790   0.4808   0.2376   0.1715   0.0015
     0.0001   0.0000   0.0000   0.0000   0.0000   0.0000   0.0000   0.0000
     0.0000   0.0000   0.0000   0.0000   0.0000   0.0000   0.0000   0.0000
     0.0000   0.0000   0.0000   0.0000   0.0000   0.0000   0.0000   0.0000
     0.0000   0.0000   0.0000   0.0000   0.0000   0.0000   0.0000   0.0000

          k = 0.0000 0.1925 0.0000 ( 17226 PWs)   bands (ev):

   -50.0950 -50.0949 -50.0405 -50.0062 -49.9698 -49.9618 -49.8533 -49.8533
   -49.3960 -49.3960 -26.6361 -26.5982 -26.5234 -26.4186 -26.3530 -26.3087
   -26.2558 -26.2335 -26.2229 -26.2108 -26.2066 -26.2064 -26.1650 -26.1526
   -26.1513 -26.1366 -26.1164 -26.0990 -26.0806 -26.0713 -26.0523 -26.0509
   -25.9649 -25.9649 -25.7526 -25.7526 -25.5369 -25.5369 -25.4533 -25.4533
    -8.8245  -8.6903  -8.4718  -8.2555  -8.0362  -7.7334  -7.4296  -7.2214
    -7.0944   0.3665   0.5920   0.9163   1.2699   1.6738   2.0705   2.3523
     2.3928   2.5185   2.5527   2.6583   2.6793   2.8866   2.9930   3.0955
     3.1272   3.3403   3.4419   3.6323   3.7539   3.7920   4.1454   4.2151
     4.3633   4.5561   4.6802   4.7745   6.4513   6.6842   6.9770   7.0804
     7.1723   7.4801   7.7451   7.8441   7.9117   7.9904   8.1612   8.2130
     8.2683   8.4054   8.5351   8.5719   8.6176   8.7098   8.8726   8.8820
     8.9592   9.1057   9.1814   9.2229   9.2775   9.3190   9.4451   9.4957
     9.6595   9.6661   9.7597   9.8305   9.8421   9.8972   9.9756  10.0108
    10.2263  10.3757  10.5046  10.7348  10.9065  11.0311  11.2604  11.6947

     occupation numbers 
     1.0000   1.0000   1.0000   1.0000   1.0000   1.0000   1.0000   1.0000
     1.0000   1.0000   1.0000   1.0000   1.0000   1.0000   1.0000   1.0000
     1.0000   1.0000   1.0000   1.0000   1.0000   1.0000   1.0000   1.0000
     1.0000   1.0000   1.0000   1.0000   1.0000   1.0000   1.0000   1.0000
     1.0000   1.0000   1.0000   1.0000   1.0000   1.0000   1.0000   1.0000
     1.0000   1.0000   1.0000   1.0000   1.0000   1.0000   1.0000   1.0000
     1.0000   1.0000   1.0000   1.0000   1.0000   1.0000   1.0000   1.0000
     1.0000   1.0000   1.0000   1.0000   1.0000   1.0000   1.0000   1.0000
     1.0000   1.0000   1.0000   1.0000   1.0000   1.0000   1.0000   1.0000
     1.0000   1.0000   1.0000   1.0000   1.0000   1.0000   1.0000   1.0000
     1.0000   1.0190   0.6642   0.1894   0.0467   0.0051   0.0000   0.0000
     0.0000   0.0000   0.0000   0.0000   0.0000   0.0000   0.0000   0.0000
     0.0000   0.0000   0.0000   0.0000   0.0000   0.0000   0.0000   0.0000
     0.0000   0.0000   0.0000   0.0000   0.0000   0.0000   0.0000   0.0000
     0.0000   0.0000   0.0000   0.0000   0.0000   0.0000   0.0000   0.0000

          k = 0.0000 0.2887 0.0000 ( 17282 PWs)   bands (ev):

   -50.0774 -50.0773 -50.0200 -49.9901 -49.9565 -49.9507 -49.8373 -49.8373
   -49.3814 -49.3814 -26.5762 -26.5559 -26.5158 -26.4768 -26.4528 -26.4129
   -26.3524 -26.3147 -26.2679 -26.2377 -26.2363 -26.2359 -26.2317 -26.2198
   -26.1849 -26.1748 -26.1427 -26.1411 -26.1168 -26.1011 -26.0979 -26.0875
   -25.9906 -25.9905 -25.7463 -25.7463 -25.6403 -25.6403 -25.4769 -25.4769
    -8.3624  -8.2679  -8.1069  -7.9671  -7.8380  -7.6298  -7.4190  -7.2906
    -7.2235   0.8313   0.9773   1.1537   1.2794   1.4631   1.7061   1.8866
     2.0356   2.1848   2.2919   2.4261   2.6004   2.6408   2.7176   2.9125
     2.9283   3.0803   3.2044   3.2764   3.4174   3.6026   3.6264   3.9820
     4.0151   4.2968   4.3512   4.4742   5.8586   6.1844   6.6311   7.1047
     7.2147   7.2162   7.6373   8.1908   8.2542   8.3777   8.4209   8.5335
     8.5735   8.7375   8.7749   8.7846   8.9647   9.0010   9.0438   9.0764
     9.1571   9.3289   9.3908   9.4989   9.6163   9.6773   9.7026   9.7265
     9.7684   9.8513   9.8759   9.8943   9.9922  10.0860  10.1390  10.5863
    10.7354  10.9366  11.1389  11.2080  11.2899  11.4210  11.5331  11.7137

     occupation numbers 
     1.0000   1.0000   1.0000   1.0000   1.0000   1.0000   1.0000   1.0000
     1.0000   1.0000   1.0000   1.0000   1.0000   1.0000   1.0000   1.0000
     1.0000   1.0000   1.0000   1.0000   1.0000   1.0000   1.0000   1.0000
     1.0000   1.0000   1.0000   1.0000   1.0000   1.0000   1.0000   1.0000
     1.0000   1.0000   1.0000   1.0000   1.0000   1.0000   1.0000   1.0000
     1.0000   1.0000   1.0000   1.0000   1.0000   1.0000   1.0000   1.0000
     1.0000   1.0000   1.0000   1.0000   1.0000   1.0000   1.0000   1.0000
     1.0000   1.0000   1.0000   1.0000   1.0000   1.0000   1.0000   1.0000
     1.0000   1.0000   1.0000   1.0000   1.0000   1.0000   1.0000   1.0000
     1.0000   1.0000   1.0000   1.0000   1.0000   1.0000   1.0000   1.0000
     1.0000   1.0000   1.0625   0.0000   0.0000   0.0000   0.0000   0.0000
     0.0000   0.0000   0.0000   0.0000   0.0000   0.0000   0.0000   0.0000
     0.0000   0.0000   0.0000   0.0000   0.0000   0.0000   0.0000   0.0000
     0.0000   0.0000   0.0000   0.0000   0.0000   0.0000   0.0000   0.0000
     0.0000   0.0000   0.0000   0.0000   0.0000   0.0000   0.0000   0.0000

          k = 0.0000 0.3849 0.0000 ( 17380 PWs)   bands (ev):

   -50.0597 -50.0597 -49.9984 -49.9742 -49.9434 -49.9401 -49.8213 -49.8213
   -49.3667 -49.3667 -26.5980 -26.5873 -26.5513 -26.5271 -26.5183 -26.4729
   -26.4585 -26.3824 -26.3330 -26.3076 -26.2808 -26.2660 -26.2651 -26.2349
   -26.2167 -26.1895 -26.1688 -26.1620 -26.1372 -26.1222 -26.1143 -26.1050
   -26.0160 -26.0160 -25.7521 -25.7521 -25.7294 -25.7294 -25.5003 -25.5003
    -7.9562  -7.9040  -7.7947  -7.7164  -7.6557  -7.5105  -7.3502  -7.2562
    -7.2179   0.6170   0.7899   1.0436   1.2671   1.4105   1.4235   1.5163
     1.6564   1.9858   2.0291   2.3266   2.5348   2.5582   2.6512   2.7510
     2.8298   2.8446   2.9425   3.0146   3.2141   3.3191   3.5625   3.7794
     3.9467   4.2186   4.2255   4.4021   5.3405   5.7588   6.2753   6.8034
     7.3856   7.4927   7.5086   8.0551   8.6246   8.8191   8.9051   8.9329
     8.9578   9.0463   9.0850   9.1859   9.2045   9.2800   9.4062   9.5115
     9.5142   9.5295   9.5433   9.6409   9.6948   9.7961   9.8669   9.9418
     9.9971  10.0047  10.0613  10.1166  10.1429  10.1592  10.3533  10.7040
    11.1949  11.2327  11.3888  11.5896  11.6630  11.7214  11.7564  11.8124

     occupation numbers 
     1.0000   1.0000   1.0000   1.0000   1.0000   1.0000   1.0000   1.0000
     1.0000   1.0000   1.0000   1.0000   1.0000   1.0000   1.0000   1.0000
     1.0000   1.0000   1.0000   1.0000   1.0000   1.0000   1.0000   1.0000
     1.0000   1.0000   1.0000   1.0000   1.0000   1.0000   1.0000   1.0000
     1.0000   1.0000   1.0000   1.0000   1.0000   1.0000   1.0000   1.0000
     1.0000   1.0000   1.0000   1.0000   1.0000   1.0000   1.0000   1.0000
     1.0000   1.0000   1.0000   1.0000   1.0000   1.0000   1.0000   1.0000
     1.0000   1.0000   1.0000   1.0000   1.0000   1.0000   1.0000   1.0000
     1.0000   1.0000   1.0000   1.0000   1.0000   1.0000   1.0000   1.0000
     1.0000   1.0000   1.0000   1.0000   1.0000   1.0000   1.0000   1.0000
     1.0015   1.0247   1.0331   0.0005   0.0000   0.0000   0.0000   0.0000
     0.0000   0.0000   0.0000   0.0000   0.0000   0.0000   0.0000   0.0000
     0.0000   0.0000   0.0000   0.0000   0.0000   0.0000   0.0000   0.0000
     0.0000   0.0000   0.0000   0.0000   0.0000   0.0000   0.0000   0.0000
     0.0000   0.0000   0.0000   0.0000   0.0000   0.0000   0.0000   0.0000

          k = 0.0000 0.4811 0.0000 ( 17374 PWs)   bands (ev):

   -50.0468 -50.0467 -49.9812 -49.9631 -49.9341 -49.9327 -49.8095 -49.8095
   -49.3559 -49.3559 -26.6808 -26.6690 -26.6188 -26.5722 -26.5541 -26.5411
   -26.4478 -26.4332 -26.3602 -26.3222 -26.2876 -26.2863 -26.2819 -26.2506
   -26.2391 -26.2001 -26.1876 -26.1663 -26.1442 -26.1379 -26.1255 -26.1183
   -26.0346 -26.0346 -25.8112 -25.8112 -25.7366 -25.7366 -25.5174 -25.5174
    -7.8759  -7.8065  -7.6799  -7.5893  -7.5044  -7.3286  -7.1505  -7.0480
    -7.0034   0.0377   0.2421   0.5510   0.8592   1.1570   1.4574   1.7096
     1.8942   1.9974   2.2780   2.3684   2.4021   2.4366   2.4916   2.5337
     2.5567   2.7475   2.7550   2.9445   3.1749   3.1861   3.5523   3.6912
     3.9617   4.1909   4.2602   4.4518   4.9939   5.5048   6.0582   6.6110
     7.2330   7.8146   7.8252   7.9310   8.5600   9.0269   9.2908   9.2975
     9.3446   9.3681   9.4178   9.4592   9.5807   9.6123   9.6488   9.6520
     9.7381   9.8135   9.8745   9.9200   9.9311   9.9610  10.0409  10.0589
    10.1381  10.1413  10.1717  10.1860  10.1893  10.2695  10.4237  10.6955
    11.1605  11.4455  11.4939  11.5977  11.7134  11.8042  12.0835  12.2589

     occupation numbers 
     1.0000   1.0000   1.0000   1.0000   1.0000   1.0000   1.0000   1.0000
     1.0000   1.0000   1.0000   1.0000   1.0000   1.0000   1.0000   1.0000
     1.0000   1.0000   1.0000   1.0000   1.0000   1.0000   1.0000   1.0000
     1.0000   1.0000   1.0000   1.0000   1.0000   1.0000   1.0000   1.0000
     1.0000   1.0000   1.0000   1.0000   1.0000   1.0000   1.0000   1.0000
     1.0000   1.0000   1.0000   1.0000   1.0000   1.0000   1.0000   1.0000
     1.0000   1.0000   1.0000   1.0000   1.0000   1.0000   1.0000   1.0000
     1.0000   1.0000   1.0000   1.0000   1.0000   1.0000   1.0000   1.0000
     1.0000   1.0000   1.0000   1.0000   1.0000   1.0000   1.0000   1.0000
     1.0000   1.0000   1.0000   1.0000   1.0000   1.0000   1.0000   1.0000
     1.0000   0.3029   0.2584   0.0287   0.0000   0.0000   0.0000   0.0000
     0.0000   0.0000   0.0000   0.0000   0.0000   0.0000   0.0000   0.0000
     0.0000   0.0000   0.0000   0.0000   0.0000   0.0000   0.0000   0.0000
     0.0000   0.0000   0.0000   0.0000   0.0000   0.0000   0.0000   0.0000
     0.0000   0.0000   0.0000   0.0000   0.0000   0.0000   0.0000   0.0000

          k = 0.0000-0.5774 0.0000 ( 17314 PWs)   bands (ev):

   -50.0420 -50.0420 -49.9742 -49.9595 -49.9309 -49.9301 -49.8051 -49.8051
   -49.3519 -49.3519 -26.7122 -26.6999 -26.6488 -26.5912 -26.5771 -26.5653
   -26.4626 -26.4574 -26.3236 -26.3085 -26.2955 -26.2941 -26.2809 -26.2779
   -26.2472 -26.2066 -26.1945 -26.1679 -26.1456 -26.1436 -26.1293 -26.1233
   -26.0413 -26.0413 -25.8345 -25.8345 -25.7364 -25.7364 -25.5237 -25.5237
    -7.8901  -7.8081  -7.6659  -7.5576  -7.4486  -7.2447  -7.0429  -6.9251
    -6.8684  -0.2238   0.0033   0.3537   0.7293   1.1155   1.5172   1.7980
     1.9192   1.9663   2.3013   2.3058   2.3437   2.3632   2.4632   2.4819
     2.5514   2.7050   2.7480   2.9146   3.1581   3.1595   3.5519   3.6670
     3.9757   4.1885   4.2864   4.4875   4.8725   5.4276   5.9894   6.5479
     7.1762   7.8594   7.9750   7.9869   8.5294   9.0434   9.3918   9.4845
     9.4933   9.4945   9.5372   9.6298   9.6848   9.6848   9.6920   9.7635
     9.8651   9.8857  10.0378  10.0466  10.0729  10.0971  10.1059  10.1132
    10.1679  10.1766  10.1796  10.2549  10.2582  10.4362  10.4817  10.6098
    11.1014  11.4223  11.5132  11.6708  11.6868  11.9662  12.2302  12.3085

     occupation numbers 
     1.0000   1.0000   1.0000   1.0000   1.0000   1.0000   1.0000   1.0000
     1.0000   1.0000   1.0000   1.0000   1.0000   1.0000   1.0000   1.0000
     1.0000   1.0000   1.0000   1.0000   1.0000   1.0000   1.0000   1.0000
     1.0000   1.0000   1.0000   1.0000   1.0000   1.0000   1.0000   1.0000
     1.0000   1.0000   1.0000   1.0000   1.0000   1.0000   1.0000   1.0000
     1.0000   1.0000   1.0000   1.0000   1.0000   1.0000   1.0000   1.0000
     1.0000   1.0000   1.0000   1.0000   1.0000   1.0000   1.0000   1.0000
     1.0000   1.0000   1.0000   1.0000   1.0000   1.0000   1.0000   1.0000
     1.0000   1.0000   1.0000   1.0000   1.0000   1.0000   1.0000   1.0000
     1.0000   1.0000   1.0000   1.0000   1.0000   1.0000   1.0000   1.0000
     1.0000   0.1436   0.0082   0.0057   0.0000   0.0000   0.0000   0.0000
     0.0000   0.0000   0.0000   0.0000   0.0000   0.0000   0.0000   0.0000
     0.0000   0.0000   0.0000   0.0000   0.0000   0.0000   0.0000   0.0000
     0.0000   0.0000   0.0000   0.0000   0.0000   0.0000   0.0000   0.0000
     0.0000   0.0000   0.0000   0.0000   0.0000   0.0000   0.0000   0.0000

          k = 0.0833 0.1443 0.0000 ( 17259 PWs)   bands (ev):

   -50.0991 -50.0990 -50.0452 -50.0099 -49.9729 -49.9645 -49.8570 -49.8570
   -49.3994 -49.3994 -26.6502 -26.6091 -26.5288 -26.4129 -26.3328 -26.2836
   -26.2355 -26.2286 -26.2122 -26.2031 -26.1978 -26.1862 -26.1557 -26.1453
   -26.1289 -26.1251 -26.1025 -26.0951 -26.0774 -26.0736 -26.0270 -26.0265
   -25.9610 -25.9610 -25.7546 -25.7546 -25.5107 -25.5107 -25.4494 -25.4494
    -8.9297  -8.7874  -8.5567  -8.3236  -8.0840  -7.7590  -7.4318  -7.2018
    -7.0585   0.2396   0.4904   0.8564   1.2627   1.7275   2.1877   2.3619
     2.4554   2.5620   2.5810   2.6153   2.8165   2.9117   2.9715   3.1467
     3.2643   3.3552   3.6234   3.7373   3.8356   4.0896   4.1901   4.3202
     4.5532   4.5723   4.6203   4.8421   6.8647   6.8996   7.0526   7.1765
     7.2248   7.4786   7.5219   7.6410   7.7695   8.0172   8.0204   8.1113
     8.2845   8.2990   8.3733   8.5445   8.6401   8.6452   8.8407   8.9198
     8.9225   9.0510   9.1052   9.2172   9.2235   9.3042   9.4117   9.5107
     9.5407   9.5558   9.5814   9.6470   9.6962   9.8367   9.9133  10.0022
    10.1076  10.2131  10.4857  10.5937  10.8317  10.9576  11.4175  11.5159

     occupation numbers 
     1.0000   1.0000   1.0000   1.0000   1.0000   1.0000   1.0000   1.0000
     1.0000   1.0000   1.0000   1.0000   1.0000   1.0000   1.0000   1.0000
     1.0000   1.0000   1.0000   1.0000   1.0000   1.0000   1.0000   1.0000
     1.0000   1.0000   1.0000   1.0000   1.0000   1.0000   1.0000   1.0000
     1.0000   1.0000   1.0000   1.0000   1.0000   1.0000   1.0000   1.0000
     1.0000   1.0000   1.0000   1.0000   1.0000   1.0000   1.0000   1.0000
     1.0000   1.0000   1.0000   1.0000   1.0000   1.0000   1.0000   1.0000
     1.0000   1.0000   1.0000   1.0000   1.0000   1.0000   1.0000   1.0000
     1.0000   1.0000   1.0000   1.0000   1.0000   1.0000   1.0000   1.0000
     1.0000   1.0000   1.0000   1.0000   1.0000   1.0000   1.0000   1.0000
     1.0000   1.0185   1.0413   1.0575   0.5294   0.0021   0.0018   0.0000
     0.0000   0.0000   0.0000   0.0000   0.0000   0.0000   0.0000   0.0000
     0.0000   0.0000   0.0000   0.0000   0.0000   0.0000   0.0000   0.0000
     0.0000   0.0000   0.0000   0.0000   0.0000   0.0000   0.0000   0.0000
     0.0000   0.0000   0.0000   0.0000   0.0000   0.0000   0.0000   0.0000

          k = 0.0833 0.2406 0.0000 ( 17323 PWs)   bands (ev):

   -50.0839 -50.0838 -50.0277 -49.9960 -49.9613 -49.9547 -49.8432 -49.8431
   -49.3868 -49.3868 -26.5969 -26.5698 -26.5128 -26.4437 -26.4096 -26.3701
   -26.3131 -26.2789 -26.2596 -26.2401 -26.2235 -26.2199 -26.2122 -26.1958
   -26.1662 -26.1544 -26.1329 -26.1230 -26.1050 -26.0992 -26.0939 -26.0800
   -25.9883 -25.9882 -25.7477 -25.7477 -25.5977 -25.5977 -25.4737 -25.4737
    -8.5297  -8.4194  -8.2364  -8.0684  -7.9068  -7.6661  -7.4259  -7.2747
    -7.1906   0.7248   0.8682   1.0659   1.2771   1.5470   1.8245   2.0355
     2.2545   2.3872   2.4442   2.6254   2.7162   2.7571   2.7864   2.9419
     3.0435   3.1240   3.2589   3.3685   3.5713   3.6644   3.7675   3.9509
     3.9927   4.1576   4.2158   4.3328   6.5012   6.6830   6.9725   7.1174
     7.1816   7.4376   7.5338   7.8086   7.8728   8.0195   8.2241   8.4273
     8.5209   8.6009   8.6667   8.7639   8.8408   8.8861   9.0115   9.0995
     9.2593   9.3507   9.3806   9.4633   9.5059   9.5651   9.6472   9.7129
     9.7277   9.7517   9.8367   9.8931   9.9697   9.9825  10.0414  10.2275
    10.3436  10.5509  10.8252  11.1265  11.2234  11.3824  11.4632  11.6371

     occupation numbers 
     1.0000   1.0000   1.0000   1.0000   1.0000   1.0000   1.0000   1.0000
     1.0000   1.0000   1.0000   1.0000   1.0000   1.0000   1.0000   1.0000
     1.0000   1.0000   1.0000   1.0000   1.0000   1.0000   1.0000   1.0000
     1.0000   1.0000   1.0000   1.0000   1.0000   1.0000   1.0000   1.0000
     1.0000   1.0000   1.0000   1.0000   1.0000   1.0000   1.0000   1.0000
     1.0000   1.0000   1.0000   1.0000   1.0000   1.0000   1.0000   1.0000
     1.0000   1.0000   1.0000   1.0000   1.0000   1.0000   1.0000   1.0000
     1.0000   1.0000   1.0000   1.0000   1.0000   1.0000   1.0000   1.0000
     1.0000   1.0000   1.0000   1.0000   1.0000   1.0000   1.0000   1.0000
     1.0000   1.0000   1.0000   1.0000   1.0000   1.0000   1.0000   1.0000
     1.0000   1.0069   1.0493   0.3299   0.1104   0.0019   0.0000   0.0000
     0.0000   0.0000   0.0000   0.0000   0.0000   0.0000   0.0000   0.0000
     0.0000   0.0000   0.0000   0.0000   0.0000   0.0000   0.0000   0.0000
     0.0000   0.0000   0.0000   0.0000   0.0000   0.0000   0.0000   0.0000
     0.0000   0.0000   0.0000   0.0000   0.0000   0.0000   0.0000   0.0000

          k = 0.0833 0.3368 0.0000 ( 17369 PWs)   bands (ev):

   -50.0662 -50.0662 -50.0065 -49.9799 -49.9481 -49.9439 -49.8271 -49.8271
   -49.3721 -49.3721 -26.5555 -26.5464 -26.5332 -26.5079 -26.4904 -26.4670
   -26.4176 -26.3558 -26.3024 -26.2832 -26.2804 -26.2514 -26.2468 -26.2346
   -26.2060 -26.1831 -26.1720 -26.1512 -26.1400 -26.1267 -26.1150 -26.0969
   -26.0192 -26.0191 -25.7436 -25.7436 -25.6934 -25.6934 -25.5018 -25.5018
    -8.0658  -8.0014  -7.8794  -7.7884  -7.7162  -7.5656  -7.4061  -7.3156
    -7.2796   0.9158   1.0580   1.2616   1.3707   1.4182   1.4789   1.6296
     1.7455   1.9753   1.9846   2.3836   2.6073   2.6616   2.7209   2.8642
     2.9135   2.9686   3.0482   3.1447   3.2349   3.3329   3.4726   3.6941
     3.7362   3.8892   3.9336   4.0941   6.0313   6.2802   6.6825   7.1368
     7.3273   7.3347   7.6750   8.0229   8.2151   8.2630   8.4878   8.5898
     8.8270   8.8730   9.0805   9.1589   9.1905   9.2445   9.3010   9.3527
     9.4205   9.4754   9.5112   9.6753   9.6928   9.7594   9.8716   9.9272
     9.9554   9.9965  10.0430  10.0732  10.1258  10.1437  10.2969  10.5668
    10.9502  10.9785  11.1604  11.3576  11.3889  11.7369  11.8322  11.8813

     occupation numbers 
     1.0000   1.0000   1.0000   1.0000   1.0000   1.0000   1.0000   1.0000
     1.0000   1.0000   1.0000   1.0000   1.0000   1.0000   1.0000   1.0000
     1.0000   1.0000   1.0000   1.0000   1.0000   1.0000   1.0000   1.0000
     1.0000   1.0000   1.0000   1.0000   1.0000   1.0000   1.0000   1.0000
     1.0000   1.0000   1.0000   1.0000   1.0000   1.0000   1.0000   1.0000
     1.0000   1.0000   1.0000   1.0000   1.0000   1.0000   1.0000   1.0000
     1.0000   1.0000   1.0000   1.0000   1.0000   1.0000   1.0000   1.0000
     1.0000   1.0000   1.0000   1.0000   1.0000   1.0000   1.0000   1.0000
     1.0000   1.0000   1.0000   1.0000   1.0000   1.0000   1.0000   1.0000
     1.0000   1.0000   1.0000   1.0000   1.0000   1.0000   1.0000   1.0000
     1.0002   1.0002   0.9813   0.0017   0.0000   0.0000   0.0000   0.0000
     0.0000   0.0000   0.0000   0.0000   0.0000   0.0000   0.0000   0.0000
     0.0000   0.0000   0.0000   0.0000   0.0000   0.0000   0.0000   0.0000
     0.0000   0.0000   0.0000   0.0000   0.0000   0.0000   0.0000   0.0000
     0.0000   0.0000   0.0000   0.0000   0.0000   0.0000   0.0000   0.0000

          k = 0.0833 0.4330 0.0000 ( 17416 PWs)   bands (ev):

   -50.0509 -50.0509 -49.9869 -49.9665 -49.9370 -49.9350 -49.8132 -49.8132
   -49.3593 -49.3593 -26.6359 -26.6254 -26.5777 -26.5475 -26.5272 -26.5091
   -26.4467 -26.4051 -26.3587 -26.3278 -26.2991 -26.2880 -26.2774 -26.2447
   -26.2351 -26.2108 -26.1792 -26.1667 -26.1540 -26.1361 -26.1336 -26.1143
   -26.0453 -26.0452 -25.7784 -25.7784 -25.7357 -25.7357 -25.5259 -25.5259
    -7.8217  -7.7727  -7.6691  -7.6031  -7.5522  -7.4158  -7.2694  -7.1859
    -7.1585   0.4095   0.5833   0.8399   1.0639   1.2411   1.4175   1.6202
     1.8280   2.0338   2.1971   2.3655   2.4232   2.5237   2.6084   2.6668
     2.7201   2.7788   2.8241   2.9223   3.0676   3.1972   3.3417   3.5977
     3.6509   3.7755   3.8344   4.0745   5.7064   5.9871   6.4301   6.9199
     7.4832   7.6409   7.6509   8.1155   8.6213   8.6594   8.7960   8.9758
     9.0501   9.1891   9.2631   9.4114   9.4331   9.5064   9.5849   9.6740
     9.7088   9.7521   9.8115   9.8625   9.9071   9.9400  10.0057  10.0908
    10.1113  10.1368  10.1526  10.1742  10.2045  10.2667  10.4539  10.7099
    11.0454  11.3226  11.4909  11.6183  11.6406  11.7463  11.9256  12.0493

     occupation numbers 
     1.0000   1.0000   1.0000   1.0000   1.0000   1.0000   1.0000   1.0000
     1.0000   1.0000   1.0000   1.0000   1.0000   1.0000   1.0000   1.0000
     1.0000   1.0000   1.0000   1.0000   1.0000   1.0000   1.0000   1.0000
     1.0000   1.0000   1.0000   1.0000   1.0000   1.0000   1.0000   1.0000
     1.0000   1.0000   1.0000   1.0000   1.0000   1.0000   1.0000   1.0000
     1.0000   1.0000   1.0000   1.0000   1.0000   1.0000   1.0000   1.0000
     1.0000   1.0000   1.0000   1.0000   1.0000   1.0000   1.0000   1.0000
     1.0000   1.0000   1.0000   1.0000   1.0000   1.0000   1.0000   1.0000
     1.0000   1.0000   1.0000   1.0000   1.0000   1.0000   1.0000   1.0000
     1.0000   1.0000   1.0000   1.0000   1.0000   1.0000   1.0000   1.0000
     1.0203   1.0576   1.0410   0.0000   0.0000   0.0000   0.0000   0.0000
     0.0000   0.0000   0.0000   0.0000   0.0000   0.0000   0.0000   0.0000
     0.0000   0.0000   0.0000   0.0000   0.0000   0.0000   0.0000   0.0000
     0.0000   0.0000   0.0000   0.0000   0.0000   0.0000   0.0000   0.0000
     0.0000   0.0000   0.0000   0.0000   0.0000   0.0000   0.0000   0.0000

          k = 0.0833-0.6255 0.0000 ( 17393 PWs)   bands (ev):

   -50.0420 -50.0420 -49.9743 -49.9595 -49.9309 -49.9301 -49.8052 -49.8052
   -49.3519 -49.3519 -26.6925 -26.6807 -26.6305 -26.5765 -26.5618 -26.5519
   -26.4501 -26.4429 -26.3399 -26.3192 -26.3134 -26.3048 -26.2836 -26.2710
   -26.2492 -26.2268 -26.1847 -26.1778 -26.1554 -26.1448 -26.1361 -26.1287
   -26.0601 -26.0600 -25.8211 -25.8211 -25.7356 -25.7356 -25.5397 -25.5397
    -7.8298  -7.7575  -7.6283  -7.5364  -7.4472  -7.2657  -7.0859  -6.9845
    -6.9415  -0.0451   0.1624   0.4822   0.8172   1.1569   1.5122   1.7814
     1.9253   1.9846   2.3181   2.3400   2.4034   2.4134   2.4811   2.5144
     2.5700   2.6843   2.7505   2.8459   3.0280   3.1378   3.3242   3.5420
     3.6613   3.7364   3.8050   4.1118   5.5592   5.8501   6.3061   6.8056
     7.3886   7.9016   7.9029   8.0294   8.6152   9.0337   9.2127   9.2888
     9.3297   9.4041   9.4693   9.5172   9.5638   9.6613   9.7724   9.8106
     9.8920   9.9408   9.9765  10.0091  10.0299  10.0758  10.0966  10.1464
    10.1592  10.1748  10.1990  10.2065  10.2831  10.3995  10.5264  10.7120
    11.0308  11.4561  11.4719  11.5650  11.7584  11.9036  12.0986  12.2974

     occupation numbers 
     1.0000   1.0000   1.0000   1.0000   1.0000   1.0000   1.0000   1.0000
     1.0000   1.0000   1.0000   1.0000   1.0000   1.0000   1.0000   1.0000
     1.0000   1.0000   1.0000   1.0000   1.0000   1.0000   1.0000   1.0000
     1.0000   1.0000   1.0000   1.0000   1.0000   1.0000   1.0000   1.0000
     1.0000   1.0000   1.0000   1.0000   1.0000   1.0000   1.0000   1.0000
     1.0000   1.0000   1.0000   1.0000   1.0000   1.0000   1.0000   1.0000
     1.0000   1.0000   1.0000   1.0000   1.0000   1.0000   1.0000   1.0000
     1.0000   1.0000   1.0000   1.0000   1.0000   1.0000   1.0000   1.0000
     1.0000   1.0000   1.0000   1.0000   1.0000   1.0000   1.0000   1.0000
     1.0000   1.0000   1.0000   1.0000   1.0000   1.0000   1.0000   1.0000
     1.0016   0.0592   0.0575   0.0013   0.0000   0.0000   0.0000   0.0000
     0.0000   0.0000   0.0000   0.0000   0.0000   0.0000   0.0000   0.0000
     0.0000   0.0000   0.0000   0.0000   0.0000   0.0000   0.0000   0.0000
     0.0000   0.0000   0.0000   0.0000   0.0000   0.0000   0.0000   0.0000
     0.0000   0.0000   0.0000   0.0000   0.0000   0.0000   0.0000   0.0000

          k = 0.1667 0.2887 0.0000 ( 17381 PWs)   bands (ev):

   -50.0686 -50.0686 -50.0094 -49.9821 -49.9499 -49.9453 -49.8293 -49.8293
   -49.3741 -49.3740 -26.5469 -26.5430 -26.5134 -26.4884 -26.4795 -26.4493
   -26.4044 -26.3395 -26.3031 -26.2804 -26.2786 -26.2426 -26.2334 -26.2314
   -26.1969 -26.1721 -26.1665 -26.1567 -26.1462 -26.1426 -26.1175 -26.0925
   -26.0293 -26.0292 -25.7426 -25.7426 -25.6706 -25.6706 -25.5096 -25.5096
    -8.1103  -8.0388  -7.9093  -7.8117  -7.7332  -7.5801  -7.4240  -7.3393
    -7.3082   1.1787   1.1911   1.2465   1.2644   1.3549   1.5490   1.7384
     1.8946   2.0213   2.0413   2.4478   2.6997   2.7697   2.8267   2.9306
     2.9904   3.0116   3.0637   3.2061   3.2233   3.3011   3.3434   3.3796
     3.6075   3.6956   3.7407   3.7616   6.7931   6.8270   7.0166   7.1021
     7.2545   7.3330   7.6263   7.6561   8.0033   8.1768   8.2716   8.3374
     8.6358   8.8883   9.0485   9.1363   9.1746   9.1978   9.3448   9.3711
     9.4313   9.5224   9.5489   9.6371   9.6878   9.7327   9.8692   9.9406
     9.9671  10.0302  10.0787  10.1036  10.1389  10.3723  10.5240  10.5641
    10.5820  10.6197  10.7622  10.9885  11.2704  11.7615  11.8006  12.0944

     occupation numbers 
     1.0000   1.0000   1.0000   1.0000   1.0000   1.0000   1.0000   1.0000
     1.0000   1.0000   1.0000   1.0000   1.0000   1.0000   1.0000   1.0000
     1.0000   1.0000   1.0000   1.0000   1.0000   1.0000   1.0000   1.0000
     1.0000   1.0000   1.0000   1.0000   1.0000   1.0000   1.0000   1.0000
     1.0000   1.0000   1.0000   1.0000   1.0000   1.0000   1.0000   1.0000
     1.0000   1.0000   1.0000   1.0000   1.0000   1.0000   1.0000   1.0000
     1.0000   1.0000   1.0000   1.0000   1.0000   1.0000   1.0000   1.0000
     1.0000   1.0000   1.0000   1.0000   1.0000   1.0000   1.0000   1.0000
     1.0000   1.0000   1.0000   1.0000   1.0000   1.0000   1.0000   1.0000
     1.0000   1.0000   1.0000   1.0000   1.0000   1.0000   1.0000   1.0000
     1.0000   1.0002   1.0739   1.0306   0.0033   0.0000   0.0000   0.0000
     0.0000   0.0000   0.0000   0.0000   0.0000   0.0000   0.0000   0.0000
     0.0000   0.0000   0.0000   0.0000   0.0000   0.0000   0.0000   0.0000
     0.0000   0.0000   0.0000   0.0000   0.0000   0.0000   0.0000   0.0000
     0.0000   0.0000   0.0000   0.0000   0.0000   0.0000   0.0000   0.0000

          k = 0.1667 0.3849 0.0000 ( 17421 PWs)   bands (ev):

   -50.0533 -50.0533 -49.9901 -49.9685 -49.9387 -49.9363 -49.8154 -49.8154
   -49.3613 -49.3613 -26.5822 -26.5769 -26.5356 -26.5239 -26.5013 -26.4911
   -26.4595 -26.3840 -26.3425 -26.3392 -26.3235 -26.2754 -26.2671 -26.2460
   -26.2310 -26.2187 -26.1941 -26.1773 -26.1708 -26.1496 -26.1344 -26.1117
   -26.0718 -26.0713 -25.7440 -25.7440 -25.7330 -25.7330 -25.5486 -25.5486
    -7.7169  -7.6945  -7.6195  -7.5793  -7.5671  -7.4892  -7.3979  -7.3292
    -7.3254   0.9011   1.0255   1.1996   1.2407   1.2857   1.3623   1.5330
     1.7338   2.0750   2.1466   2.4590   2.5512   2.6291   2.7041   2.7383
     2.7519   2.8134   2.8681   2.9765   3.0313   3.0763   3.1230   3.1329
     3.1708   3.2684   3.4481   3.6484   6.5943   6.6997   7.0155   7.3387
     7.4129   7.5221   7.7584   7.9595   8.0611   8.3569   8.5635   8.7028
     8.7195   9.0045   9.2027   9.3105   9.4790   9.5138   9.5524   9.6069
     9.6479   9.6881   9.7443   9.7910   9.8794  10.0022  10.0627  10.1047
    10.1414  10.1634  10.2134  10.2149  10.4873  10.6069  10.6639  10.8141
    10.9450  11.0553  11.1472  11.2930  11.4562  11.7867  11.8642  11.9838

     occupation numbers 
     1.0000   1.0000   1.0000   1.0000   1.0000   1.0000   1.0000   1.0000
     1.0000   1.0000   1.0000   1.0000   1.0000   1.0000   1.0000   1.0000
     1.0000   1.0000   1.0000   1.0000   1.0000   1.0000   1.0000   1.0000
     1.0000   1.0000   1.0000   1.0000   1.0000   1.0000   1.0000   1.0000
     1.0000   1.0000   1.0000   1.0000   1.0000   1.0000   1.0000   1.0000
     1.0000   1.0000   1.0000   1.0000   1.0000   1.0000   1.0000   1.0000
     1.0000   1.0000   1.0000   1.0000   1.0000   1.0000   1.0000   1.0000
     1.0000   1.0000   1.0000   1.0000   1.0000   1.0000   1.0000   1.0000
     1.0000   1.0000   1.0000   1.0000   1.0000   1.0000   1.0000   1.0000
     1.0000   1.0000   1.0000   1.0000   1.0000   1.0000   1.0000   1.0003
     1.0035   1.0415   0.5909   0.0131   0.0004   0.0000   0.0000   0.0000
     0.0000   0.0000   0.0000   0.0000   0.0000   0.0000   0.0000   0.0000
     0.0000   0.0000   0.0000   0.0000   0.0000   0.0000   0.0000   0.0000
     0.0000   0.0000   0.0000   0.0000   0.0000   0.0000   0.0000   0.0000
     0.0000   0.0000   0.0000   0.0000   0.0000   0.0000   0.0000   0.0000

          k = 0.1667-0.6736 0.0000 ( 17428 PWs)   bands (ev):

   -50.0421 -50.0420 -49.9744 -49.9594 -49.9308 -49.9300 -49.8052 -49.8052
   -49.3519 -49.3519 -26.6417 -26.6325 -26.5851 -26.5456 -26.5332 -26.5192
   -26.4312 -26.4154 -26.3737 -26.3628 -26.3420 -26.3023 -26.2981 -26.2692
   -26.2622 -26.2364 -26.2118 -26.1897 -26.1725 -26.1495 -26.1450 -26.1348
   -26.1011 -26.1002 -25.7874 -25.7874 -25.7347 -25.7347 -25.5780 -25.5780
    -7.6640  -7.6219  -7.5285  -7.4806  -7.4437  -7.3240  -7.2046  -7.1348
    -7.1242   0.4207   0.5737   0.8071   1.0238   1.2299   1.4757   1.7247
     1.9307   2.0604   2.3229   2.3455   2.4278   2.5276   2.5692   2.6524
     2.6807   2.7036   2.7556   2.7652   2.8016   2.8438   2.9223   3.0080
     3.0213   3.1018   3.4186   3.6945   6.4276   6.5619   6.8985   7.3291
     7.6935   7.7298   7.8973   8.3985   8.4479   8.6305   8.8359   8.9343
     9.0568   9.1427   9.2885   9.4283   9.5306   9.5809   9.6813   9.7615
     9.8050   9.8406   9.9001   9.9506  10.0120  10.0563  10.1161  10.1503
    10.1645  10.1742  10.3584  10.3584  10.5826  10.6051  10.7399  10.9409
    11.0960  11.2413  11.4628  11.5944  11.6659  11.8029  11.8914  12.1066

     occupation numbers 
     1.0000   1.0000   1.0000   1.0000   1.0000   1.0000   1.0000   1.0000
     1.0000   1.0000   1.0000   1.0000   1.0000   1.0000   1.0000   1.0000
     1.0000   1.0000   1.0000   1.0000   1.0000   1.0000   1.0000   1.0000
     1.0000   1.0000   1.0000   1.0000   1.0000   1.0000   1.0000   1.0000
     1.0000   1.0000   1.0000   1.0000   1.0000   1.0000   1.0000   1.0000
     1.0000   1.0000   1.0000   1.0000   1.0000   1.0000   1.0000   1.0000
     1.0000   1.0000   1.0000   1.0000   1.0000   1.0000   1.0000   1.0000
     1.0000   1.0000   1.0000   1.0000   1.0000   1.0000   1.0000   1.0000
     1.0000   1.0000   1.0000   1.0000   1.0000   1.0000   1.0000   1.0000
     1.0000   1.0000   1.0000   1.0000   1.0000   1.0000   1.0000   1.0002
     0.9159   0.7466   0.0654   0.0000   0.0000   0.0000   0.0000   0.0000
     0.0000   0.0000   0.0000   0.0000   0.0000   0.0000   0.0000   0.0000
     0.0000   0.0000   0.0000   0.0000   0.0000   0.0000   0.0000   0.0000
     0.0000   0.0000   0.0000   0.0000   0.0000   0.0000   0.0000   0.0000
     0.0000   0.0000   0.0000   0.0000   0.0000   0.0000   0.0000   0.0000

          k = 0.1667-0.5774 0.0000 ( 17399 PWs)   bands (ev):

   -50.0379 -50.0379 -49.9678 -49.9568 -49.9280 -49.9277 -49.8014 -49.8014
   -49.3485 -49.3485 -26.6650 -26.6543 -26.6054 -26.5522 -26.5424 -26.5337
   -26.4350 -26.4306 -26.3708 -26.3702 -26.3353 -26.3321 -26.3073 -26.2727
   -26.2605 -26.2501 -26.2089 -26.2016 -26.1712 -26.1515 -26.1463 -26.1460
   -26.1108 -26.1108 -25.8045 -25.8045 -25.7338 -25.7338 -25.5889 -25.5889
    -7.6859  -7.6300  -7.5217  -7.4574  -7.3977  -7.2488  -7.1030  -7.0239
    -7.0021   0.2121   0.3874   0.6618   0.9470   1.2394   1.5589   1.8064
     1.9382   1.9994   2.3381   2.3821   2.4165   2.4632   2.5136   2.5588
     2.5942   2.6190   2.6731   2.7386   2.7572   2.8480   2.8622   2.9450
     2.9935   3.1059   3.4312   3.7274   6.3744   6.5160   6.8560   7.2922
     7.7808   7.8650   7.9122   8.3796   8.8243   9.0659   9.0692   9.0953
     9.1095   9.3275   9.3562   9.4478   9.4819   9.5101   9.6100   9.7335
     9.8421   9.9088   9.9155   9.9602   9.9989  10.0226  10.1047  10.1506
    10.1651  10.1668  10.4198  10.4198  10.5632  10.6188  10.7805  10.9897
    11.1120  11.2544  11.5113  11.5543  11.7000  11.8891  11.9811  12.2177

     occupation numbers 
     1.0000   1.0000   1.0000   1.0000   1.0000   1.0000   1.0000   1.0000
     1.0000   1.0000   1.0000   1.0000   1.0000   1.0000   1.0000   1.0000
     1.0000   1.0000   1.0000   1.0000   1.0000   1.0000   1.0000   1.0000
     1.0000   1.0000   1.0000   1.0000   1.0000   1.0000   1.0000   1.0000
     1.0000   1.0000   1.0000   1.0000   1.0000   1.0000   1.0000   1.0000
     1.0000   1.0000   1.0000   1.0000   1.0000   1.0000   1.0000   1.0000
     1.0000   1.0000   1.0000   1.0000   1.0000   1.0000   1.0000   1.0000
     1.0000   1.0000   1.0000   1.0000   1.0000   1.0000   1.0000   1.0000
     1.0000   1.0000   1.0000   1.0000   1.0000   1.0000   1.0000   1.0000
     1.0000   1.0000   1.0000   1.0000   1.0000   1.0000   1.0000   1.0000
     0.4688   0.1288   0.0461   0.0000   0.0000   0.0000   0.0000   0.0000
     0.0000   0.0000   0.0000   0.0000   0.0000   0.0000   0.0000   0.0000
     0.0000   0.0000   0.0000   0.0000   0.0000   0.0000   0.0000   0.0000
     0.0000   0.0000   0.0000   0.0000   0.0000   0.0000   0.0000   0.0000
     0.0000   0.0000   0.0000   0.0000   0.0000   0.0000   0.0000   0.0000

          k = 0.2500-0.7217 0.0000 ( 17473 PWs)   bands (ev):

   -50.0421 -50.0421 -49.9745 -49.9594 -49.9308 -49.9300 -49.8052 -49.8052
   -49.3520 -49.3519 -26.6003 -26.5967 -26.5555 -26.5404 -26.5281 -26.4872
   -26.4404 -26.4085 -26.3907 -26.3835 -26.3583 -26.2952 -26.2889 -26.2857
   -26.2517 -26.2513 -26.2294 -26.2077 -26.1754 -26.1533 -26.1531 -26.1439
   -26.1201 -26.1160 -25.7629 -25.7629 -25.7362 -25.7362 -25.6029 -25.6029
    -7.4916  -7.4914  -7.4307  -7.4306  -7.4293  -7.3953  -7.3725  -7.2544
    -7.2544   0.8644   0.8947   0.9948   1.1022   1.2223   1.4256   1.6748
     1.9267   2.1835   2.3346   2.3522   2.4143   2.4661   2.4867   2.5188
     2.5192   2.5886   2.6433   2.6521   2.7211   2.7679   2.9175   2.9325
     3.0819   3.0959   3.1817   3.2055   7.0708   7.0778   7.4212   7.4568
     7.5877   7.6546   7.8984   7.9894   8.3040   8.4170   8.6568   8.9168
     9.0053   9.0328   9.2273   9.4803   9.5309   9.5543   9.6771   9.6852
     9.6852   9.7787   9.8072   9.8841   9.9993  10.0829  10.1241  10.1308
    10.1510  10.1728  10.3583  10.3584  10.8184  10.9591  11.0009  11.1028
    11.2244  11.3402  11.4365  11.6486  11.6737  11.7035  11.7579  11.8183

     occupation numbers 
     1.0000   1.0000   1.0000   1.0000   1.0000   1.0000   1.0000   1.0000
     1.0000   1.0000   1.0000   1.0000   1.0000   1.0000   1.0000   1.0000
     1.0000   1.0000   1.0000   1.0000   1.0000   1.0000   1.0000   1.0000
     1.0000   1.0000   1.0000   1.0000   1.0000   1.0000   1.0000   1.0000
     1.0000   1.0000   1.0000   1.0000   1.0000   1.0000   1.0000   1.0000
     1.0000   1.0000   1.0000   1.0000   1.0000   1.0000   1.0000   1.0000
     1.0000   1.0000   1.0000   1.0000   1.0000   1.0000   1.0000   1.0000
     1.0000   1.0000   1.0000   1.0000   1.0000   1.0000   1.0000   1.0000
     1.0000   1.0000   1.0000   1.0000   1.0000   1.0000   1.0000   1.0000
     1.0000   1.0000   1.0000   1.0000   1.0000   1.0000   1.0044   1.0112
     1.0811   1.0337   0.0637   0.0052   0.0000   0.0000   0.0000   0.0000
     0.0000   0.0000   0.0000   0.0000   0.0000   0.0000   0.0000   0.0000
     0.0000   0.0000   0.0000   0.0000   0.0000   0.0000   0.0000   0.0000
     0.0000   0.0000   0.0000   0.0000   0.0000   0.0000   0.0000   0.0000
     0.0000   0.0000   0.0000   0.0000   0.0000   0.0000   0.0000   0.0000

          k = 0.2500-0.6255 0.0000 ( 17403 PWs)   bands (ev):

   -50.0356 -50.0356 -49.9637 -49.9557 -49.9264 -49.9263 -49.7993 -49.7993
   -49.3465 -49.3465 -26.6100 -26.6024 -26.5586 -26.5333 -26.5187 -26.4930
   -26.4544 -26.4511 -26.4078 -26.3918 -26.3770 -26.3416 -26.3310 -26.3034
   -26.2586 -26.2493 -26.2322 -26.2106 -26.1952 -26.1826 -26.1686 -26.1586
   -26.1325 -26.1319 -25.7715 -25.7715 -25.7338 -25.7338 -25.6421 -25.6421
    -7.4887  -7.4694  -7.3999  -7.3808  -7.3685  -7.2829  -7.2075  -7.1292
    -7.1284   0.7144   0.8195   0.9887   1.1440   1.3016   1.5084   1.7082
     1.8738   2.0341   2.1121   2.2405   2.2784   2.3373   2.3649   2.4093
     2.4445   2.4889   2.5205   2.6347   2.6825   2.7516   2.7696   2.8363
     2.8487   2.9444   3.1250   3.2595   7.1509   7.1662   7.4865   7.6856
     7.7535   7.9180   8.3122   8.3614   8.5558   8.6961   8.8669   8.9545
     9.1156   9.1884   9.2679   9.3165   9.3612   9.4323   9.4944   9.6255
     9.6770   9.7810   9.7954   9.8865  10.0024  10.0189  10.0936  10.1117
    10.1233  10.1570  10.4121  10.4123  11.0189  11.0492  11.1511  11.2016
    11.3401  11.4227  11.5272  11.6364  11.7227  11.7616  11.8915  11.9455

     occupation numbers 
     1.0000   1.0000   1.0000   1.0000   1.0000   1.0000   1.0000   1.0000
     1.0000   1.0000   1.0000   1.0000   1.0000   1.0000   1.0000   1.0000
     1.0000   1.0000   1.0000   1.0000   1.0000   1.0000   1.0000   1.0000
     1.0000   1.0000   1.0000   1.0000   1.0000   1.0000   1.0000   1.0000
     1.0000   1.0000   1.0000   1.0000   1.0000   1.0000   1.0000   1.0000
     1.0000   1.0000   1.0000   1.0000   1.0000   1.0000   1.0000   1.0000
     1.0000   1.0000   1.0000   1.0000   1.0000   1.0000   1.0000   1.0000
     1.0000   1.0000   1.0000   1.0000   1.0000   1.0000   1.0000   1.0000
     1.0000   1.0000   1.0000   1.0000   1.0000   1.0000   1.0000   1.0000
     1.0000   1.0000   1.0000   1.0000   1.0000   1.0000   1.0218   0.9459
     0.6180   0.0400   0.0000   0.0000   0.0000   0.0000   0.0000   0.0000
     0.0000   0.0000   0.0000   0.0000   0.0000   0.0000   0.0000   0.0000
     0.0000   0.0000   0.0000   0.0000   0.0000   0.0000   0.0000   0.0000
     0.0000   0.0000   0.0000   0.0000   0.0000   0.0000   0.0000   0.0000
     0.0000   0.0000   0.0000   0.0000   0.0000   0.0000   0.0000   0.0000

          k = 0.3333-0.5774 0.0000 ( 17397 PWs)   bands (ev):

   -50.0332 -50.0332 -49.9570 -49.9570 -49.9249 -49.9249 -49.7971 -49.7971
   -49.3445 -49.3445 -26.5503 -26.5503 -26.5490 -26.5393 -26.5124 -26.5124
   -26.4936 -26.4432 -26.4432 -26.3956 -26.3870 -26.3870 -26.3176 -26.3176
   -26.2757 -26.2741 -26.2156 -26.2156 -26.1984 -26.1984 -26.1950 -26.1807
   -26.1329 -26.1329 -25.7492 -25.7492 -25.7338 -25.7338 -25.6825 -25.6825
    -7.3813  -7.3813  -7.3359  -7.3359  -7.3019  -7.2920  -7.2920  -7.1460
    -7.1460   1.2275   1.2317   1.2718   1.2718   1.3153   1.3153   1.3656
     1.3656   1.8652   1.8653   2.2169   2.2499   2.2499   2.2786   2.3429
     2.3429   2.3798   2.3798   2.7891   2.7891   2.8023   2.8490   2.8490
     2.8669   2.8895   2.9140   2.9140   7.4158   7.4158   7.7916   7.7916
     8.3185   8.3525   8.3525   8.4278   8.5498   8.5498   8.6096   8.9428
     8.9428   9.0077   9.2191   9.2362   9.2362   9.4349   9.4349   9.4837
     9.5583   9.6818   9.6818  10.0225  10.0225  10.0274  10.0874  10.0874
    10.0908  10.1138  10.4105  10.4105  11.2555  11.2731  11.2731  11.3455
    11.3810  11.3810  11.4418  11.5128  11.5128  12.2487  12.2487  12.2748

     occupation numbers 
     1.0000   1.0000   1.0000   1.0000   1.0000   1.0000   1.0000   1.0000
     1.0000   1.0000   1.0000   1.0000   1.0000   1.0000   1.0000   1.0000
     1.0000   1.0000   1.0000   1.0000   1.0000   1.0000   1.0000   1.0000
     1.0000   1.0000   1.0000   1.0000   1.0000   1.0000   1.0000   1.0000
     1.0000   1.0000   1.0000   1.0000   1.0000   1.0000   1.0000   1.0000
     1.0000   1.0000   1.0000   1.0000   1.0000   1.0000   1.0000   1.0000
     1.0000   1.0000   1.0000   1.0000   1.0000   1.0000   1.0000   1.0000
     1.0000   1.0000   1.0000   1.0000   1.0000   1.0000   1.0000   1.0000
     1.0000   1.0000   1.0000   1.0000   1.0000   1.0000   1.0000   1.0000
     1.0000   1.0000   1.0000   1.0000   1.0038   1.0038   0.4121   0.4121
     0.0000   0.0000   0.0000   0.0000   0.0000   0.0000   0.0000   0.0000
     0.0000   0.0000   0.0000   0.0000   0.0000   0.0000   0.0000   0.0000
     0.0000   0.0000   0.0000   0.0000   0.0000   0.0000   0.0000   0.0000
     0.0000   0.0000   0.0000   0.0000   0.0000   0.0000   0.0000   0.0000
     0.0000   0.0000   0.0000   0.0000   0.0000   0.0000   0.0000   0.0000

     the Fermi energy is     7.7939 ev

!    total energy              =   -1383.70500675 Ry
     estimated scf accuracy    <          1.9E-09 Ry
     smearing contrib. (-TS)   =      -0.00050427 Ry
     internal energy E=F+TS    =   -1383.70450248 Ry

     The total energy is F=E-TS. E is the sum of the following terms:
     one-electron contribution =  -31094.73687442 Ry
     hartree contribution      =   15585.57274762 Ry
     xc contribution           =    -238.28321541 Ry
     ewald contribution        =   14363.74283972 Ry

     convergence has been achieved in  13 iterations

     negative rho (up, down):  2.192E-04 0.000E+00

     Forces acting on atoms (cartesian axes, Ry/au):

     atom    1 type  1   force =     0.00000000    0.00000000    0.01369714
     atom    2 type  2   force =    -0.00000000    0.00000000   -0.01044224
     atom    3 type  1   force =     0.00000000   -0.00000000   -0.00365840
     atom    4 type  2   force =     0.00000000    0.00000000   -0.00193407
     atom    5 type  1   force =    -0.00000000    0.00000000    0.00141148
     atom    6 type  2   force =     0.00000000    0.00000000   -0.00031212
     atom    7 type  1   force =     0.00000000    0.00000000   -0.00774525
     atom    8 type  2   force =    -0.00000000    0.00000000    0.00259209
     atom    9 type  1   force =     0.00000000    0.00000000    0.00718732
     atom   10 type  2   force =     0.00000000    0.00000000    0.00000000
     atom   11 type  1   force =     0.00000000    0.00000000   -0.00718732
     atom   12 type  2   force =     0.00000000   -0.00000000   -0.00259209
     atom   13 type  1   force =     0.00000000    0.00000000    0.00774525
     atom   14 type  2   force =     0.00000000    0.00000000    0.00031212
     atom   15 type  1   force =    -0.00000000    0.00000000   -0.00141148
     atom   16 type  2   force =     0.00000000    0.00000000    0.00193407
     atom   17 type  1   force =     0.00000000   -0.00000000    0.00365840
     atom   18 type  2   force =     0.00000000   -0.00000000    0.01044224
     atom   19 type  1   force =     0.00000000    0.00000000   -0.01369714
     The non-local contrib.  to forces
     atom    1 type  1   force =    -0.00000000   -0.00000000    0.05852200
     atom    2 type  2   force =     0.00000000    0.00000000    0.02911681
     atom    3 type  1   force =     0.00000000    0.00000000   -0.01960839
     atom    4 type  2   force =     0.00000000    0.00000000    0.00574397
     atom    5 type  1   force =     0.00000000   -0.00000000    0.01127336
     atom    6 type  2   force =     0.00000000    0.00000000   -0.00202751
     atom    7 type  1   force =     0.00000000    0.00000000   -0.00506861
     atom    8 type  2   force =    -0.00000000    0.00000000   -0.00118074
     atom    9 type  1   force =     0.00000000    0.00000000    0.00211992
     atom   10 type  2   force =     0.00000000    0.00000000    0.00000000
     atom   11 type  1   force =     0.00000000   -0.00000000   -0.00211992
     atom   12 type  2   force =     0.00000000   -0.00000000    0.00118074
     atom   13 type  1   force =     0.00000000    0.00000000    0.00506861
     atom   14 type  2   force =     0.00000000    0.00000000    0.00202751
     atom   15 type  1   force =    -0.00000000    0.00000000   -0.01127336
     atom   16 type  2   force =     0.00000000   -0.00000000   -0.00574397
     atom   17 type  1   force =    -0.00000000   -0.00000000    0.01960839
     atom   18 type  2   force =     0.00000000    0.00000000   -0.02911681
     atom   19 type  1   force =     0.00000000   -0.00000000   -0.05852200
     The ionic contribution  to forces
     atom    1 type  1   force =     0.00000000   -0.00000000 -357.34872833
     atom    2 type  2   force =    -0.00000000    0.00000000 -133.34257921
     atom    3 type  1   force =     0.00000000   -0.00000000 -278.94094217
     atom    4 type  2   force =    -0.00000000   -0.00000000  -99.86654462
     atom    5 type  1   force =    -0.00000000    0.00000000 -200.36796609
     atom    6 type  2   force =     0.00000000   -0.00000000  -66.78479621
     atom    7 type  1   force =    -0.00000000   -0.00000000 -119.96048265
     atom    8 type  2   force =    -0.00000000    0.00000000  -33.32273137
     atom    9 type  1   force =     0.00000000   -0.00000000  -39.98992258
     atom   10 type  2   force =    -0.00000000   -0.00000000    0.00000000
     atom   11 type  1   force =    -0.00000000    0.00000000   39.98992258
     atom   12 type  2   force =     0.00000000   -0.00000000   33.32273137
     atom   13 type  1   force =    -0.00000000   -0.00000000  119.96048265
     atom   14 type  2   force =    -0.00000000    0.00000000   66.78479621
     atom   15 type  1   force =     0.00000000   -0.00000000  200.36796609
     atom   16 type  2   force =    -0.00000000   -0.00000000   99.86654462
     atom   17 type  1   force =    -0.00000000    0.00000000  278.94094217
     atom   18 type  2   force =     0.00000000   -0.00000000  133.34257921
     atom   19 type  1   force =    -0.00000000    0.00000000  357.34872833
     The local contribution  to forces
     atom    1 type  1   force =     0.00000000   -0.00000000  357.31510996
     atom    2 type  2   force =    -0.00000001    0.00000001  133.30370642
     atom    3 type  1   force =     0.00000006   -0.00000004  278.95550014
     atom    4 type  2   force =     0.00000000   -0.00000000   99.85887706
     atom    5 type  1   force =    -0.00000005    0.00000006  200.35876554
     atom    6 type  2   force =     0.00000001   -0.00000001   66.78663768
     atom    7 type  1   force =     0.00000000   -0.00000000  119.95804302
     atom    8 type  2   force =    -0.00000001    0.00000001   33.32649190
     atom    9 type  1   force =     0.00000006   -0.00000004   39.99512808
     atom   10 type  2   force =     0.00000000    0.00000000    0.00000000
     atom   11 type  1   force =    -0.00000005    0.00000006  -39.99512808
     atom   12 type  2   force =     0.00000001   -0.00000001  -33.32649190
     atom   13 type  1   force =     0.00000000    0.00000000 -119.95804302
     atom   14 type  2   force =    -0.00000001    0.00000001  -66.78663768
     atom   15 type  1   force =     0.00000006   -0.00000004 -200.35876554
     atom   16 type  2   force =    -0.00000000    0.00000000  -99.85887706
     atom   17 type  1   force =    -0.00000005    0.00000006 -278.95550014
     atom   18 type  2   force =     0.00000001   -0.00000001 -133.30370642
     atom   19 type  1   force =    -0.00000000    0.00000000 -357.31510996
     The core correction contribution to forces
     atom    1 type  1   force =    -0.00000000    0.00000000   -0.01115045
     atom    2 type  2   force =     0.00000000   -0.00000000   -0.00066666
     atom    3 type  1   force =    -0.00000000    0.00000000    0.00141631
     atom    4 type  2   force =     0.00000000   -0.00000000    0.00000369
     atom    5 type  1   force =     0.00000000   -0.00000000   -0.00057161
     atom    6 type  2   force =    -0.00000000    0.00000000   -0.00009269
     atom    7 type  1   force =     0.00000000   -0.00000000   -0.00016389
     atom    8 type  2   force =     0.00000000   -0.00000000    0.00003941
     atom    9 type  1   force =    -0.00000000    0.00000000   -0.00010848
     atom   10 type  2   force =     0.00000000    0.00000000   -0.00000000
     atom   11 type  1   force =     0.00000000   -0.00000000    0.00010848
     atom   12 type  2   force =    -0.00000000    0.00000000   -0.00003941
     atom   13 type  1   force =    -0.00000000    0.00000000    0.00016389
     atom   14 type  2   force =     0.00000000   -0.00000000    0.00009269
     atom   15 type  1   force =    -0.00000000    0.00000000    0.00057161
     atom   16 type  2   force =    -0.00000000    0.00000000   -0.00000369
     atom   17 type  1   force =     0.00000000   -0.00000000   -0.00141631
     atom   18 type  2   force =    -0.00000000    0.00000000    0.00066666
     atom   19 type  1   force =     0.00000000   -0.00000000    0.01115045
     The Hubbard contrib.    to forces
     atom    1 type  1   force =     0.00000000    0.00000000    0.00000000
     atom    2 type  2   force =     0.00000000    0.00000000    0.00000000
     atom    3 type  1   force =     0.00000000    0.00000000    0.00000000
     atom    4 type  2   force =     0.00000000    0.00000000    0.00000000
     atom    5 type  1   force =     0.00000000    0.00000000    0.00000000
     atom    6 type  2   force =     0.00000000    0.00000000    0.00000000
     atom    7 type  1   force =     0.00000000    0.00000000    0.00000000
     atom    8 type  2   force =     0.00000000    0.00000000    0.00000000
     atom    9 type  1   force =     0.00000000    0.00000000    0.00000000
     atom   10 type  2   force =     0.00000000    0.00000000    0.00000000
     atom   11 type  1   force =     0.00000000    0.00000000    0.00000000
     atom   12 type  2   force =     0.00000000    0.00000000    0.00000000
     atom   13 type  1   force =     0.00000000    0.00000000    0.00000000
     atom   14 type  2   force =     0.00000000    0.00000000    0.00000000
     atom   15 type  1   force =     0.00000000    0.00000000    0.00000000
     atom   16 type  2   force =     0.00000000    0.00000000    0.00000000
     atom   17 type  1   force =     0.00000000    0.00000000    0.00000000
     atom   18 type  2   force =     0.00000000    0.00000000    0.00000000
     atom   19 type  1   force =     0.00000000    0.00000000    0.00000000
     The SCF correction term to forces
     atom    1 type  1   force =     0.00000000   -0.00000000   -0.00005605
     atom    2 type  2   force =    -0.00000000    0.00000000   -0.00001960
     atom    3 type  1   force =    -0.00000000    0.00000000   -0.00002429
     atom    4 type  2   force =     0.00000000    0.00000000   -0.00001417
     atom    5 type  1   force =     0.00000000   -0.00000000   -0.00008972
     atom    6 type  2   force =     0.00000000   -0.00000000   -0.00003339
     atom    7 type  1   force =     0.00000000   -0.00000000   -0.00000000
     atom    8 type  2   force =     0.00000000    0.00000000   -0.00000000
     atom    9 type  1   force =    -0.00000000    0.00000000   -0.00000000
     atom   10 type  2   force =    -0.00000000    0.00000000    0.00000000
     atom   11 type  1   force =     0.00000000   -0.00000000    0.00000000
     atom   12 type  2   force =    -0.00000000    0.00000000    0.00000000
     atom   13 type  1   force =    -0.00000000    0.00000000    0.00000000
     atom   14 type  2   force =    -0.00000000    0.00000000    0.00003339
     atom   15 type  1   force =    -0.00000000    0.00000000    0.00008972
     atom   16 type  2   force =    -0.00000000    0.00000000    0.00001417
     atom   17 type  1   force =     0.00000000   -0.00000000    0.00002429
     atom   18 type  2   force =     0.00000000   -0.00000000    0.00001960
     atom   19 type  1   force =    -0.00000000   -0.00000000    0.00005605

     Total force =     0.025134     Total SCF correction =     0.000164


     Computing stress (Cartesian axis) and pressure


     negative rho (up, down):  2.192E-04 0.000E+00
          total   stress  (Ry/bohr**3)                   (kbar)     P=       -0.26
   0.00000602   0.00000000   0.00000000            0.89        0.00        0.00
  -0.00000000   0.00000602  -0.00000000           -0.00        0.89       -0.00
   0.00000000   0.00000000  -0.00001743            0.00        0.00       -2.56

     kinetic stress (kbar)  23058.43     -0.00      0.00
                               -0.00  23058.43      0.00
                                0.00      0.00  22962.92

     local   stress (kbar)**********      0.00     -0.00
                                0.00**********      0.00
                               -0.00      0.002049045.65

     nonloc. stress (kbar)      1.11     -0.00      0.00
                               -0.00      1.11      0.00
                                0.00      0.00     44.58

     hartree stress (kbar)1025619.54     -0.00      0.00
                               -0.001025619.54     -0.00
                                0.00     -0.00**********

     exc-cor stress (kbar)  -1520.23     -0.00     -0.00
                               -0.00  -1520.23      0.00
                               -0.00      0.00  -1523.72

     corecor stress (kbar)  -3162.09      0.00     -0.00
                                0.00  -3162.09      0.00
                               -0.00      0.00  -3161.80

     ewald   stress (kbar)1003345.08     -0.00      0.00
                               -0.001003345.08     -0.00
                                0.00     -0.00**********

     hubbard stress (kbar)      0.00      0.00      0.00
                                0.00      0.00      0.00
                                0.00      0.00      0.00

     DFT-D   stress (kbar)      0.00      0.00      0.00
                                0.00      0.00      0.00
                                0.00      0.00      0.00

     XDM     stress (kbar)      0.00      0.00      0.00
                                0.00      0.00      0.00
                                0.00      0.00      0.00

     dft-nl  stress (kbar)      0.00      0.00      0.00
                                0.00      0.00      0.00
                                0.00      0.00      0.00

     TS-vdW  stress (kbar)      0.00      0.00      0.00
                                0.00      0.00      0.00
                                0.00      0.00      0.00


     Energy error            =      4.5E-03
     Gradient error          =      1.4E-02

     number of scf cycles    =   3
     number of bfgs steps    =   2

     energy   old            =   -1383.7004633332 Ry
     energy   new            =   -1383.7050067492 Ry

     CASE: energy  _new < energy  _old

     new trust radius        =       0.0351612424 bohr
     new conv_thr            =       0.0000000014 Ry


ATOMIC_POSITIONS (angstrom)
Ti            0.0000000000        0.0000000000       10.0718212379
N             1.5004805900        0.8663028720       11.1754849515
Ti            3.0009611790        1.7326057450       12.4101044842
N            -0.0000000000        0.0000000000       13.6748352059
Ti            1.5004805900        0.8663028720       14.9229919341
N             3.0009611790        1.7326057450       16.1206326677
Ti            0.0000000000        0.0000000000       17.3508236270    0   0   0
N             1.5004805900        0.8663028720       18.5759608990    0   0   0
Ti            3.0009611790        1.7326057450       19.8010981700    0   0   0
N             0.0000000000        0.0000000000       21.0262354410    0   0   0
Ti            1.5004805900        0.8663028720       22.2513727120    0   0   0
N             3.0009611790        1.7326057450       23.4765099830    0   0   0
Ti            0.0000000000        0.0000000000       24.7016472550    0   0   0
N             1.5004805900        0.8663028720       25.9318382143
Ti            3.0009611790        1.7326057450       27.1294789479
N             0.0000000000       -0.0000000000       28.3776356761
Ti            1.5004805900        0.8663028720       29.6423663978
N             3.0009611790        1.7326057450       30.8769859305
Ti            0.0000000000       -0.0000000000       31.9806496441



     Writing output data file ./tmp/tin111.save/
     NEW-OLD atomic charge density approx. for the potential

     Check: negative core charge=   -0.000003

     negative rho (up, down):  2.086E-04 0.000E+00

     total cpu time spent up to now is     1264.7 secs

     Self-consistent Calculation

     iteration #  1     ecut=    60.00 Ry     beta= 0.20
     Davidson diagonalization with overlap
     ethr =  1.00E-06,  avg # of iterations =  7.5

     negative rho (up, down):  2.108E-04 0.000E+00

     total cpu time spent up to now is     1312.3 secs

     total energy              =   -1383.70384004 Ry
     estimated scf accuracy    <       0.00629444 Ry

     iteration #  2     ecut=    60.00 Ry     beta= 0.20
     Davidson diagonalization with overlap
     ethr =  3.81E-06,  avg # of iterations = 10.4

     negative rho (up, down):  2.556E-04 0.000E+00

     total cpu time spent up to now is     1339.6 secs

     total energy              =   -1383.67057389 Ry
     estimated scf accuracy    <       7.01274273 Ry

     iteration #  3     ecut=    60.00 Ry     beta= 0.20
     Davidson diagonalization with overlap
     ethr =  3.81E-06,  avg # of iterations =  9.2

     negative rho (up, down):  2.648E-04 0.000E+00

     total cpu time spent up to now is     1366.9 secs

     total energy              =   -1383.70553786 Ry
     estimated scf accuracy    <       0.00426877 Ry

     iteration #  4     ecut=    60.00 Ry     beta= 0.20
     Davidson diagonalization with overlap
     ethr =  2.59E-06,  avg # of iterations =  1.3

     negative rho (up, down):  2.805E-04 0.000E+00

     total cpu time spent up to now is     1385.3 secs

     total energy              =   -1383.70569007 Ry
     estimated scf accuracy    <       0.00245142 Ry

     iteration #  5     ecut=    60.00 Ry     beta= 0.20
     Davidson diagonalization with overlap
     ethr =  1.49E-06,  avg # of iterations =  1.2

     negative rho (up, down):  2.760E-04 0.000E+00

     total cpu time spent up to now is     1403.6 secs

     total energy              =   -1383.70574319 Ry
     estimated scf accuracy    <       0.00173429 Ry

     iteration #  6     ecut=    60.00 Ry     beta= 0.20
     Davidson diagonalization with overlap
     ethr =  1.05E-06,  avg # of iterations =  1.0

     negative rho (up, down):  2.631E-04 0.000E+00

     total cpu time spent up to now is     1420.7 secs

     total energy              =   -1383.70578294 Ry
     estimated scf accuracy    <       0.00021206 Ry

     iteration #  7     ecut=    60.00 Ry     beta= 0.20
     Davidson diagonalization with overlap
     ethr =  1.29E-07,  avg # of iterations =  1.0

     negative rho (up, down):  2.214E-04 0.000E+00

     total cpu time spent up to now is     1437.0 secs

     total energy              =   -1383.70578601 Ry
     estimated scf accuracy    <       0.00004198 Ry

     iteration #  8     ecut=    60.00 Ry     beta= 0.20
     Davidson diagonalization with overlap
     ethr =  2.54E-08,  avg # of iterations =  2.1

     negative rho (up, down):  2.238E-04 0.000E+00

     total cpu time spent up to now is     1458.5 secs

     total energy              =   -1383.70579009 Ry
     estimated scf accuracy    <       0.00000278 Ry

     iteration #  9     ecut=    60.00 Ry     beta= 0.20
     Davidson diagonalization with overlap
     ethr =  1.69E-09,  avg # of iterations =  2.8

     negative rho (up, down):  2.266E-04 0.000E+00

     total cpu time spent up to now is     1479.7 secs

     total energy              =   -1383.70579033 Ry
     estimated scf accuracy    <       0.00000081 Ry

     iteration # 10     ecut=    60.00 Ry     beta= 0.20
     Davidson diagonalization with overlap
     ethr =  4.88E-10,  avg # of iterations =  2.2

     negative rho (up, down):  2.278E-04 0.000E+00

     total cpu time spent up to now is     1501.0 secs

     total energy              =   -1383.70579044 Ry
     estimated scf accuracy    <       0.00000015 Ry

     iteration # 11     ecut=    60.00 Ry     beta= 0.20
     Davidson diagonalization with overlap
     ethr =  8.96E-11,  avg # of iterations =  4.1

     negative rho (up, down):  2.251E-04 0.000E+00

     total cpu time spent up to now is     1520.8 secs

     total energy              =   -1383.70579056 Ry
     estimated scf accuracy    <       0.00000003 Ry

     iteration # 12     ecut=    60.00 Ry     beta= 0.20
     Davidson diagonalization with overlap
     ethr =  1.65E-11,  avg # of iterations =  3.1

     negative rho (up, down):  2.233E-04 0.000E+00

     total cpu time spent up to now is     1541.5 secs

     total energy              =   -1383.70579062 Ry
     estimated scf accuracy    <       0.00000013 Ry

     iteration # 13     ecut=    60.00 Ry     beta= 0.20
     Davidson diagonalization with overlap
     ethr =  1.65E-11,  avg # of iterations =  1.7

     negative rho (up, down):  2.221E-04 0.000E+00

     total cpu time spent up to now is     1561.0 secs

     total energy              =   -1383.70579066 Ry
     estimated scf accuracy    <       0.00000036 Ry

     iteration # 14     ecut=    60.00 Ry     beta= 0.20
     Davidson diagonalization with overlap
     ethr =  1.65E-11,  avg # of iterations =  1.3

     negative rho (up, down):  2.196E-04 0.000E+00

     total cpu time spent up to now is     1579.8 secs

     End of self-consistent calculation

          k = 0.0000 0.0000 0.0000 ( 17133 PWs)   bands (ev):

   -50.1197 -50.1195 -50.0647 -50.0253 -49.9829 -49.9744 -49.8426 -49.8426
   -49.3899 -49.3899 -26.6990 -26.6474 -26.5519 -26.4082 -26.2977 -26.2397
   -26.1837 -26.1837 -26.1837 -26.1837 -26.1620 -26.1183 -26.1183 -26.0952
   -26.0937 -26.0937 -26.0608 -26.0608 -26.0578 -26.0578 -25.9109 -25.9109
   -25.9109 -25.9109 -25.7394 -25.7394 -25.4166 -25.4166 -25.4166 -25.4166
    -9.2717  -9.1005  -8.8314  -8.5582  -8.2667  -7.8641  -7.4474  -7.1361
    -6.9323  -0.1920   0.1409   0.6331   1.2047   1.9260   2.3495   2.3495
     2.5139   2.5139   2.7695   2.7695   2.8389   3.0049   3.0049   3.3146
     3.3146   3.7841   3.8604   3.8604   4.5085   4.5085   4.6252   5.0682
     5.0682   5.3536   5.5193   5.5193   6.9783   7.0415   7.2355   7.2355
     7.3277   7.4267   7.4267   7.5473   7.6896   7.6896   7.8227   7.9529
     7.9529   8.1152   8.2168   8.2168   8.4534   8.4878   8.4878   8.5814
     8.5814   8.8484   8.8686   8.8686   8.9976   8.9976   9.2644   9.3163
     9.3163   9.4295   9.4295   9.6275   9.6275   9.6346   9.6346   9.6375
     9.9163  10.0782  10.1398  10.1398  10.9034  10.9034  11.6584  11.6584

     occupation numbers 
     1.0000   1.0000   1.0000   1.0000   1.0000   1.0000   1.0000   1.0000
     1.0000   1.0000   1.0000   1.0000   1.0000   1.0000   1.0000   1.0000
     1.0000   1.0000   1.0000   1.0000   1.0000   1.0000   1.0000   1.0000
     1.0000   1.0000   1.0000   1.0000   1.0000   1.0000   1.0000   1.0000
     1.0000   1.0000   1.0000   1.0000   1.0000   1.0000   1.0000   1.0000
     1.0000   1.0000   1.0000   1.0000   1.0000   1.0000   1.0000   1.0000
     1.0000   1.0000   1.0000   1.0000   1.0000   1.0000   1.0000   1.0000
     1.0000   1.0000   1.0000   1.0000   1.0000   1.0000   1.0000   1.0000
     1.0000   1.0000   1.0000   1.0000   1.0000   1.0000   1.0000   1.0000
     1.0000   1.0000   1.0000   1.0000   1.0000   1.0000   1.0000   1.0000
     1.0002   1.0059   1.0059   1.0619   0.9121   0.9121   0.2487   0.0137
     0.0137   0.0000   0.0000   0.0000   0.0000   0.0000   0.0000   0.0000
     0.0000   0.0000   0.0000   0.0000   0.0000   0.0000   0.0000   0.0000
     0.0000   0.0000   0.0000   0.0000   0.0000   0.0000   0.0000   0.0000
     0.0000   0.0000   0.0000   0.0000   0.0000   0.0000   0.0000   0.0000

          k = 0.0000 0.0962 0.0000 ( 17192 PWs)   bands (ev):

   -50.1151 -50.1149 -50.0595 -50.0211 -49.9793 -49.9712 -49.8383 -49.8383
   -49.3859 -49.3859 -26.6832 -26.6347 -26.5439 -26.4071 -26.3031 -26.2472
   -26.2081 -26.2071 -26.1916 -26.1916 -26.1722 -26.1472 -26.1289 -26.1163
   -26.1009 -26.1004 -26.0872 -26.0804 -26.0659 -26.0615 -25.9449 -25.9449
   -25.9180 -25.9180 -25.7347 -25.7347 -25.4462 -25.4462 -25.4231 -25.4231
    -9.1543  -8.9914  -8.7351  -8.4796  -8.2096  -7.8313  -7.4424  -7.1592
    -6.9780  -0.0439   0.2617   0.7090   1.2198   1.8434   2.3472   2.3988
     2.5002   2.5394   2.5568   2.7662   2.8017   2.9299   3.0222   3.2983
     3.3131   3.4151   3.8283   3.9905   4.0667   4.4223   4.5614   4.6592
     4.8985   4.9657   5.1563   5.2374   6.9177   6.9732   7.0877   7.2710
     7.3847   7.4995   7.5670   7.5791   7.7777   7.8339   7.8453   8.0207
     8.0878   8.1260   8.2796   8.3204   8.4529   8.5440   8.6466   8.6624
     8.7774   8.9335   8.9877   9.0251   9.0592   9.0755   9.3048   9.3684
     9.3976   9.4267   9.4933   9.5934   9.6735   9.6990   9.7982   9.8274
    10.0234  10.1234  10.2090  10.2921  10.8153  10.9487  11.4974  11.6817

     occupation numbers 
     1.0000   1.0000   1.0000   1.0000   1.0000   1.0000   1.0000   1.0000
     1.0000   1.0000   1.0000   1.0000   1.0000   1.0000   1.0000   1.0000
     1.0000   1.0000   1.0000   1.0000   1.0000   1.0000   1.0000   1.0000
     1.0000   1.0000   1.0000   1.0000   1.0000   1.0000   1.0000   1.0000
     1.0000   1.0000   1.0000   1.0000   1.0000   1.0000   1.0000   1.0000
     1.0000   1.0000   1.0000   1.0000   1.0000   1.0000   1.0000   1.0000
     1.0000   1.0000   1.0000   1.0000   1.0000   1.0000   1.0000   1.0000
     1.0000   1.0000   1.0000   1.0000   1.0000   1.0000   1.0000   1.0000
     1.0000   1.0000   1.0000   1.0000   1.0000   1.0000   1.0000   1.0000
     1.0000   1.0000   1.0000   1.0000   1.0000   1.0000   1.0000   1.0000
     1.0017   1.0308   1.0742   1.0798   0.4588   0.2071   0.1700   0.0015
     0.0001   0.0000   0.0000   0.0000   0.0000   0.0000   0.0000   0.0000
     0.0000   0.0000   0.0000   0.0000   0.0000   0.0000   0.0000   0.0000
     0.0000   0.0000   0.0000   0.0000   0.0000   0.0000   0.0000   0.0000
     0.0000   0.0000   0.0000   0.0000   0.0000   0.0000   0.0000   0.0000

          k = 0.0000 0.1925 0.0000 ( 17226 PWs)   bands (ev):

   -50.1023 -50.1022 -50.0450 -50.0094 -49.9694 -49.9627 -49.8265 -49.8265
   -49.3752 -49.3751 -26.6393 -26.6004 -26.5254 -26.4172 -26.3530 -26.3127
   -26.2586 -26.2298 -26.2222 -26.2132 -26.2131 -26.2118 -26.1642 -26.1556
   -26.1507 -26.1372 -26.1194 -26.0997 -26.0805 -26.0725 -26.0281 -26.0275
   -25.9371 -25.9371 -25.7266 -25.7266 -25.5254 -25.5254 -25.4405 -25.4405
    -8.8261  -8.6880  -8.4694  -8.2658  -8.0572  -7.7466  -7.4325  -7.2213
    -7.0965   0.3636   0.5895   0.9086   1.2556   1.6620   2.0536   2.3362
     2.3601   2.5150   2.5403   2.6280   2.6545   2.8696   2.9872   3.0502
     3.0995   3.2920   3.4437   3.6300   3.7318   3.7932   4.1384   4.2117
     4.3536   4.5563   4.6734   4.7717   6.4515   6.6977   7.0129   7.0999
     7.1635   7.4746   7.7422   7.8449   7.9100   7.9882   8.1548   8.2051
     8.2741   8.3879   8.5272   8.5771   8.5977   8.7068   8.8742   8.8774
     8.9667   9.1177   9.1921   9.2240   9.2968   9.3540   9.4654   9.4995
     9.6745   9.6794   9.7864   9.8404   9.8707   9.9050   9.9781  10.0104
    10.2318  10.3975  10.5231  10.7809  10.9559  11.0587  11.3008  11.7319

     occupation numbers 
     1.0000   1.0000   1.0000   1.0000   1.0000   1.0000   1.0000   1.0000
     1.0000   1.0000   1.0000   1.0000   1.0000   1.0000   1.0000   1.0000
     1.0000   1.0000   1.0000   1.0000   1.0000   1.0000   1.0000   1.0000
     1.0000   1.0000   1.0000   1.0000   1.0000   1.0000   1.0000   1.0000
     1.0000   1.0000   1.0000   1.0000   1.0000   1.0000   1.0000   1.0000
     1.0000   1.0000   1.0000   1.0000   1.0000   1.0000   1.0000   1.0000
     1.0000   1.0000   1.0000   1.0000   1.0000   1.0000   1.0000   1.0000
     1.0000   1.0000   1.0000   1.0000   1.0000   1.0000   1.0000   1.0000
     1.0000   1.0000   1.0000   1.0000   1.0000   1.0000   1.0000   1.0000
     1.0000   1.0000   1.0000   1.0000   1.0000   1.0000   1.0000   1.0000
     1.0000   1.0188   0.6535   0.1713   0.0432   0.0046   0.0000   0.0000
     0.0000   0.0000   0.0000   0.0000   0.0000   0.0000   0.0000   0.0000
     0.0000   0.0000   0.0000   0.0000   0.0000   0.0000   0.0000   0.0000
     0.0000   0.0000   0.0000   0.0000   0.0000   0.0000   0.0000   0.0000
     0.0000   0.0000   0.0000   0.0000   0.0000   0.0000   0.0000   0.0000

          k = 0.0000 0.2887 0.0000 ( 17282 PWs)   bands (ev):

   -50.0848 -50.0848 -50.0246 -49.9936 -49.9560 -49.9512 -49.8104 -49.8104
   -49.3604 -49.3604 -26.5798 -26.5592 -26.5188 -26.4781 -26.4554 -26.4170
   -26.3560 -26.3154 -26.2653 -26.2426 -26.2423 -26.2306 -26.2177 -26.2105
   -26.1893 -26.1698 -26.1455 -26.1314 -26.1057 -26.1011 -26.0948 -26.0891
   -25.9631 -25.9631 -25.7211 -25.7211 -25.6297 -25.6297 -25.4643 -25.4643
    -8.3648  -8.2679  -8.1077  -7.9817  -7.8607  -7.6409  -7.4191  -7.2868
    -7.2235   0.8281   0.9748   1.1477   1.2695   1.4569   1.7075   1.8759
     1.9999   2.1422   2.2719   2.4228   2.5966   2.6452   2.7133   2.8955
     2.9272   3.0375   3.1941   3.2330   3.4081   3.5929   3.6086   3.9738
     4.0148   4.3005   4.3438   4.4732   5.8547   6.1868   6.6355   7.1040
     7.2218   7.2249   7.6419   8.2085   8.2515   8.3767   8.4200   8.5340
     8.5702   8.7340   8.7634   8.7912   8.9491   8.9876   9.0472   9.0674
     9.1656   9.3327   9.4040   9.5122   9.6220   9.7075   9.7325   9.7403
     9.7898   9.8702   9.8806   9.9155   9.9922  10.0842  10.1584  10.6082
    10.7362  10.9468  11.1667  11.2238  11.2886  11.4314  11.5503  11.7381

     occupation numbers 
     1.0000   1.0000   1.0000   1.0000   1.0000   1.0000   1.0000   1.0000
     1.0000   1.0000   1.0000   1.0000   1.0000   1.0000   1.0000   1.0000
     1.0000   1.0000   1.0000   1.0000   1.0000   1.0000   1.0000   1.0000
     1.0000   1.0000   1.0000   1.0000   1.0000   1.0000   1.0000   1.0000
     1.0000   1.0000   1.0000   1.0000   1.0000   1.0000   1.0000   1.0000
     1.0000   1.0000   1.0000   1.0000   1.0000   1.0000   1.0000   1.0000
     1.0000   1.0000   1.0000   1.0000   1.0000   1.0000   1.0000   1.0000
     1.0000   1.0000   1.0000   1.0000   1.0000   1.0000   1.0000   1.0000
     1.0000   1.0000   1.0000   1.0000   1.0000   1.0000   1.0000   1.0000
     1.0000   1.0000   1.0000   1.0000   1.0000   1.0000   1.0000   1.0000
     1.0000   1.0000   1.0484   0.0000   0.0000   0.0000   0.0000   0.0000
     0.0000   0.0000   0.0000   0.0000   0.0000   0.0000   0.0000   0.0000
     0.0000   0.0000   0.0000   0.0000   0.0000   0.0000   0.0000   0.0000
     0.0000   0.0000   0.0000   0.0000   0.0000   0.0000   0.0000   0.0000
     0.0000   0.0000   0.0000   0.0000   0.0000   0.0000   0.0000   0.0000

          k = 0.0000 0.3849 0.0000 ( 17380 PWs)   bands (ev):

   -50.0673 -50.0673 -50.0030 -49.9781 -49.9428 -49.9402 -49.7942 -49.7942
   -49.3456 -49.3456 -26.6025 -26.5921 -26.5549 -26.5304 -26.5197 -26.4755
   -26.4604 -26.3796 -26.3208 -26.2897 -26.2720 -26.2714 -26.2712 -26.2342
   -26.2211 -26.1857 -26.1714 -26.1544 -26.1308 -26.1222 -26.1141 -26.1067
   -25.9890 -25.9890 -25.7369 -25.7369 -25.7101 -25.7101 -25.4880 -25.4880
    -7.9598  -7.9070  -7.7999  -7.7382  -7.6813  -7.5190  -7.3479  -7.2471
    -7.2140   0.6140   0.7879   1.0357   1.2467   1.4033   1.4162   1.5146
     1.6558   1.9813   2.0235   2.3222   2.5311   2.5527   2.6474   2.7434
     2.8238   2.8303   2.9281   2.9767   3.1743   3.3078   3.5460   3.7686
     3.9472   4.2079   4.2299   4.4016   5.3334   5.7580   6.2757   6.7978
     7.3726   7.4870   7.5178   8.0764   8.6559   8.8163   8.9038   8.9428
     8.9549   9.0437   9.0824   9.1806   9.2035   9.2816   9.4097   9.5015
     9.5183   9.5251   9.5532   9.6766   9.7018   9.8149   9.8840   9.9601
    10.0156  10.0184  10.0728  10.1209  10.1451  10.1581  10.3686  10.7271
    11.2238  11.2310  11.3909  11.5925  11.6637  11.7210  11.7897  11.8304

     occupation numbers 
     1.0000   1.0000   1.0000   1.0000   1.0000   1.0000   1.0000   1.0000
     1.0000   1.0000   1.0000   1.0000   1.0000   1.0000   1.0000   1.0000
     1.0000   1.0000   1.0000   1.0000   1.0000   1.0000   1.0000   1.0000
     1.0000   1.0000   1.0000   1.0000   1.0000   1.0000   1.0000   1.0000
     1.0000   1.0000   1.0000   1.0000   1.0000   1.0000   1.0000   1.0000
     1.0000   1.0000   1.0000   1.0000   1.0000   1.0000   1.0000   1.0000
     1.0000   1.0000   1.0000   1.0000   1.0000   1.0000   1.0000   1.0000
     1.0000   1.0000   1.0000   1.0000   1.0000   1.0000   1.0000   1.0000
     1.0000   1.0000   1.0000   1.0000   1.0000   1.0000   1.0000   1.0000
     1.0000   1.0000   1.0000   1.0000   1.0000   1.0000   1.0000   1.0000
     1.0011   1.0243   1.0418   0.0002   0.0000   0.0000   0.0000   0.0000
     0.0000   0.0000   0.0000   0.0000   0.0000   0.0000   0.0000   0.0000
     0.0000   0.0000   0.0000   0.0000   0.0000   0.0000   0.0000   0.0000
     0.0000   0.0000   0.0000   0.0000   0.0000   0.0000   0.0000   0.0000
     0.0000   0.0000   0.0000   0.0000   0.0000   0.0000   0.0000   0.0000

          k = 0.0000 0.4811 0.0000 ( 17374 PWs)   bands (ev):

   -50.0544 -50.0544 -49.9859 -49.9675 -49.9333 -49.9323 -49.7823 -49.7823
   -49.3347 -49.3347 -26.6851 -26.6735 -26.6232 -26.5743 -26.5569 -26.5434
   -26.4367 -26.4177 -26.3530 -26.3165 -26.2934 -26.2923 -26.2818 -26.2524
   -26.2436 -26.1966 -26.1902 -26.1590 -26.1379 -26.1365 -26.1242 -26.1201
   -26.0078 -26.0078 -25.8002 -25.8002 -25.7135 -25.7135 -25.5052 -25.5052
    -7.8794  -7.8095  -7.6877  -7.6140  -7.5303  -7.3368  -7.1476  -7.0391
    -7.0000   0.0361   0.2444   0.5520   0.8481   1.1398   1.4499   1.7100
     1.8986   1.9988   2.2775   2.3688   2.3988   2.4355   2.4922   2.5309
     2.5477   2.7359   2.7389   2.9106   3.1370   3.1739   3.5358   3.6777
     3.9620   4.1758   4.2641   4.4509   4.9841   5.5041   6.0590   6.6065
     7.2329   7.8001   7.8117   7.9493   8.5931   9.0586   9.2878   9.3179
     9.3418   9.3756   9.4195   9.4580   9.5908   9.6115   9.6685   9.6722
     9.7494   9.8180   9.8728   9.9230   9.9325   9.9536  10.0429  10.0617
    10.1430  10.1458  10.1758  10.2018  10.2042  10.2800  10.4365  10.7160
    11.1864  11.4421  11.4897  11.5917  11.7393  11.8026  12.0901  12.2779

     occupation numbers 
     1.0000   1.0000   1.0000   1.0000   1.0000   1.0000   1.0000   1.0000
     1.0000   1.0000   1.0000   1.0000   1.0000   1.0000   1.0000   1.0000
     1.0000   1.0000   1.0000   1.0000   1.0000   1.0000   1.0000   1.0000
     1.0000   1.0000   1.0000   1.0000   1.0000   1.0000   1.0000   1.0000
     1.0000   1.0000   1.0000   1.0000   1.0000   1.0000   1.0000   1.0000
     1.0000   1.0000   1.0000   1.0000   1.0000   1.0000   1.0000   1.0000
     1.0000   1.0000   1.0000   1.0000   1.0000   1.0000   1.0000   1.0000
     1.0000   1.0000   1.0000   1.0000   1.0000   1.0000   1.0000   1.0000
     1.0000   1.0000   1.0000   1.0000   1.0000   1.0000   1.0000   1.0000
     1.0000   1.0000   1.0000   1.0000   1.0000   1.0000   1.0000   1.0000
     1.0000   0.3466   0.2940   0.0152   0.0000   0.0000   0.0000   0.0000
     0.0000   0.0000   0.0000   0.0000   0.0000   0.0000   0.0000   0.0000
     0.0000   0.0000   0.0000   0.0000   0.0000   0.0000   0.0000   0.0000
     0.0000   0.0000   0.0000   0.0000   0.0000   0.0000   0.0000   0.0000
     0.0000   0.0000   0.0000   0.0000   0.0000   0.0000   0.0000   0.0000

          k = 0.0000-0.5774 0.0000 ( 17314 PWs)   bands (ev):

   -50.0497 -50.0497 -49.9790 -49.9640 -49.9300 -49.9294 -49.7779 -49.7779
   -49.3307 -49.3307 -26.7164 -26.7043 -26.6533 -26.5928 -26.5812 -26.5667
   -26.4445 -26.4385 -26.3228 -26.3069 -26.3012 -26.3000 -26.2833 -26.2792
   -26.2517 -26.2032 -26.1970 -26.1612 -26.1437 -26.1374 -26.1272 -26.1251
   -26.0147 -26.0147 -25.8231 -25.8231 -25.7137 -25.7137 -25.5115 -25.5115
    -7.8934  -7.8106  -7.6736  -7.5821  -7.4749  -7.2536  -7.0401  -6.9174
    -6.8662  -0.2249   0.0071   0.3571   0.7207   1.0978   1.5091   1.8003
     1.9249   1.9676   2.2987   2.3051   2.3404   2.3658   2.4661   2.4795
     2.5444   2.6944   2.7340   2.8821   3.1222   3.1464   3.5353   3.6526
     3.9759   4.1711   4.2900   4.4864   4.8615   5.4275   5.9907   6.5441
     7.1773   7.8792   7.9602   7.9687   8.5615   9.0830   9.4423   9.4814
     9.4920   9.5216   9.5388   9.6287   9.6833   9.6836   9.7097   9.7686
     9.8658   9.8925  10.0333  10.0418  10.0669  10.0942  10.1060  10.1112
    10.1681  10.1745  10.1874  10.2791  10.2824  10.4636  10.4897  10.6147
    11.1231  11.4187  11.5077  11.6783  11.6921  11.9613  12.2447  12.3108

     occupation numbers 
     1.0000   1.0000   1.0000   1.0000   1.0000   1.0000   1.0000   1.0000
     1.0000   1.0000   1.0000   1.0000   1.0000   1.0000   1.0000   1.0000
     1.0000   1.0000   1.0000   1.0000   1.0000   1.0000   1.0000   1.0000
     1.0000   1.0000   1.0000   1.0000   1.0000   1.0000   1.0000   1.0000
     1.0000   1.0000   1.0000   1.0000   1.0000   1.0000   1.0000   1.0000
     1.0000   1.0000   1.0000   1.0000   1.0000   1.0000   1.0000   1.0000
     1.0000   1.0000   1.0000   1.0000   1.0000   1.0000   1.0000   1.0000
     1.0000   1.0000   1.0000   1.0000   1.0000   1.0000   1.0000   1.0000
     1.0000   1.0000   1.0000   1.0000   1.0000   1.0000   1.0000   1.0000
     1.0000   1.0000   1.0000   1.0000   1.0000   1.0000   1.0000   1.0000
     1.0000   0.0874   0.0111   0.0086   0.0000   0.0000   0.0000   0.0000
     0.0000   0.0000   0.0000   0.0000   0.0000   0.0000   0.0000   0.0000
     0.0000   0.0000   0.0000   0.0000   0.0000   0.0000   0.0000   0.0000
     0.0000   0.0000   0.0000   0.0000   0.0000   0.0000   0.0000   0.0000
     0.0000   0.0000   0.0000   0.0000   0.0000   0.0000   0.0000   0.0000

          k = 0.0833 0.1443 0.0000 ( 17259 PWs)   bands (ev):

   -50.1064 -50.1062 -50.0496 -50.0131 -49.9725 -49.9654 -49.8303 -49.8303
   -49.3786 -49.3786 -26.6533 -26.6111 -26.5305 -26.4108 -26.3308 -26.2869
   -26.2382 -26.2272 -26.2150 -26.2082 -26.2009 -26.1909 -26.1576 -26.1450
   -26.1297 -26.1275 -26.1047 -26.0974 -26.0773 -26.0742 -26.0013 -26.0011
   -25.9332 -25.9332 -25.7285 -25.7285 -25.4989 -25.4989 -25.4366 -25.4366
    -8.9311  -8.7848  -8.5538  -8.3332  -8.1047  -7.7726  -7.4353  -7.2024
    -7.0609   0.2366   0.4876   0.8477   1.2460   1.7127   2.1693   2.3572
     2.4414   2.5267   2.5767   2.5988   2.7855   2.8936   2.9375   3.1050
     3.2409   3.3203   3.6007   3.7391   3.8231   4.0907   4.1816   4.3177
     4.5512   4.5668   4.6134   4.8371   6.8986   6.9400   7.0483   7.1694
     7.2311   7.4824   7.5015   7.6301   7.7654   8.0096   8.0167   8.1135
     8.2818   8.2954   8.3659   8.5437   8.6350   8.6437   8.8362   8.9284
     8.9320   9.0559   9.1101   9.2225   9.2274   9.3160   9.4216   9.5301
     9.5549   9.5696   9.6045   9.6755   9.7277   9.8481   9.9216  10.0054
    10.1353  10.2155  10.5366  10.6255  10.8720  10.9939  11.4544  11.5543

     occupation numbers 
     1.0000   1.0000   1.0000   1.0000   1.0000   1.0000   1.0000   1.0000
     1.0000   1.0000   1.0000   1.0000   1.0000   1.0000   1.0000   1.0000
     1.0000   1.0000   1.0000   1.0000   1.0000   1.0000   1.0000   1.0000
     1.0000   1.0000   1.0000   1.0000   1.0000   1.0000   1.0000   1.0000
     1.0000   1.0000   1.0000   1.0000   1.0000   1.0000   1.0000   1.0000
     1.0000   1.0000   1.0000   1.0000   1.0000   1.0000   1.0000   1.0000
     1.0000   1.0000   1.0000   1.0000   1.0000   1.0000   1.0000   1.0000
     1.0000   1.0000   1.0000   1.0000   1.0000   1.0000   1.0000   1.0000
     1.0000   1.0000   1.0000   1.0000   1.0000   1.0000   1.0000   1.0000
     1.0000   1.0000   1.0000   1.0000   1.0000   1.0000   1.0000   1.0000
     1.0000   1.0222   1.0319   1.0653   0.5255   0.0023   0.0018   0.0000
     0.0000   0.0000   0.0000   0.0000   0.0000   0.0000   0.0000   0.0000
     0.0000   0.0000   0.0000   0.0000   0.0000   0.0000   0.0000   0.0000
     0.0000   0.0000   0.0000   0.0000   0.0000   0.0000   0.0000   0.0000
     0.0000   0.0000   0.0000   0.0000   0.0000   0.0000   0.0000   0.0000

          k = 0.0833 0.2406 0.0000 ( 17323 PWs)   bands (ev):

   -50.0912 -50.0912 -50.0322 -49.9994 -49.9608 -49.9554 -49.8163 -49.8163
   -49.3658 -49.3658 -26.6003 -26.5726 -26.5153 -26.4441 -26.4120 -26.3746
   -26.3171 -26.2805 -26.2587 -26.2394 -26.2262 -26.2228 -26.2062 -26.1898
   -26.1676 -26.1529 -26.1356 -26.1205 -26.0979 -26.0950 -26.0794 -26.0738
   -25.9608 -25.9608 -25.7221 -25.7221 -25.5867 -25.5867 -25.4612 -25.4612
    -8.5318  -8.4184  -8.2359  -8.0812  -7.9288  -7.6780  -7.4271  -7.2724
    -7.1915   0.7220   0.8665   1.0604   1.2670   1.5415   1.8186   2.0099
     2.2104   2.3814   2.4029   2.6189   2.7118   2.7428   2.7784   2.9167
     3.0460   3.0796   3.2297   3.3573   3.5576   3.6531   3.7672   3.9431
     3.9922   4.1591   4.2142   4.3286   6.5021   6.6965   7.0049   7.1321
     7.1650   7.4286   7.5316   7.8037   7.8697   8.0110   8.2135   8.4298
     8.5172   8.6013   8.6677   8.7641   8.8452   8.8805   9.0171   9.0982
     9.2571   9.3601   9.3877   9.4630   9.5086   9.5768   9.6632   9.7413
     9.7530   9.7651   9.8548   9.9012   9.9907   9.9910  10.0455  10.2430
    10.3478  10.5698  10.8554  11.1568  11.2298  11.3897  11.5187  11.6582

     occupation numbers 
     1.0000   1.0000   1.0000   1.0000   1.0000   1.0000   1.0000   1.0000
     1.0000   1.0000   1.0000   1.0000   1.0000   1.0000   1.0000   1.0000
     1.0000   1.0000   1.0000   1.0000   1.0000   1.0000   1.0000   1.0000
     1.0000   1.0000   1.0000   1.0000   1.0000   1.0000   1.0000   1.0000
     1.0000   1.0000   1.0000   1.0000   1.0000   1.0000   1.0000   1.0000
     1.0000   1.0000   1.0000   1.0000   1.0000   1.0000   1.0000   1.0000
     1.0000   1.0000   1.0000   1.0000   1.0000   1.0000   1.0000   1.0000
     1.0000   1.0000   1.0000   1.0000   1.0000   1.0000   1.0000   1.0000
     1.0000   1.0000   1.0000   1.0000   1.0000   1.0000   1.0000   1.0000
     1.0000   1.0000   1.0000   1.0000   1.0000   1.0000   1.0000   1.0000
     1.0000   1.0062   1.0511   0.3297   0.1064   0.0022   0.0000   0.0000
     0.0000   0.0000   0.0000   0.0000   0.0000   0.0000   0.0000   0.0000
     0.0000   0.0000   0.0000   0.0000   0.0000   0.0000   0.0000   0.0000
     0.0000   0.0000   0.0000   0.0000   0.0000   0.0000   0.0000   0.0000
     0.0000   0.0000   0.0000   0.0000   0.0000   0.0000   0.0000   0.0000

          k = 0.0833 0.3368 0.0000 ( 17369 PWs)   bands (ev):

   -50.0737 -50.0737 -50.0111 -49.9837 -49.9476 -49.9442 -49.8001 -49.8001
   -49.3510 -49.3510 -26.5603 -26.5515 -26.5363 -26.5089 -26.4927 -26.4703
   -26.4210 -26.3562 -26.2998 -26.2763 -26.2760 -26.2468 -26.2388 -26.2311
   -26.2098 -26.1825 -26.1696 -26.1464 -26.1354 -26.1236 -26.1139 -26.0975
   -25.9923 -25.9923 -25.7195 -25.7195 -25.6824 -25.6824 -25.4895 -25.4895
    -8.0691  -8.0036  -7.8836  -7.8083  -7.7408  -7.5746  -7.4045  -7.3076
    -7.2764   0.9123   1.0540   1.2502   1.3648   1.4093   1.4751   1.6284
     1.7426   1.9524   1.9615   2.3804   2.6041   2.6567   2.7156   2.8477
     2.9022   2.9343   3.0226   3.1220   3.2159   3.3218   3.4606   3.6960
     3.7311   3.8938   3.9364   4.0877   6.0260   6.2782   6.6819   7.1340
     7.3260   7.3337   7.6794   8.0205   8.2256   8.2681   8.4817   8.5879
     8.8251   8.8829   9.0825   9.1653   9.1892   9.2484   9.2960   9.3613
     9.4116   9.4752   9.5232   9.6875   9.6961   9.7734   9.8829   9.9488
     9.9815  10.0128  10.0517  10.0775  10.1255  10.1537  10.3152  10.5886
    10.9676  10.9835  11.1668  11.3770  11.4001  11.7359  11.8772  11.9070

     occupation numbers 
     1.0000   1.0000   1.0000   1.0000   1.0000   1.0000   1.0000   1.0000
     1.0000   1.0000   1.0000   1.0000   1.0000   1.0000   1.0000   1.0000
     1.0000   1.0000   1.0000   1.0000   1.0000   1.0000   1.0000   1.0000
     1.0000   1.0000   1.0000   1.0000   1.0000   1.0000   1.0000   1.0000
     1.0000   1.0000   1.0000   1.0000   1.0000   1.0000   1.0000   1.0000
     1.0000   1.0000   1.0000   1.0000   1.0000   1.0000   1.0000   1.0000
     1.0000   1.0000   1.0000   1.0000   1.0000   1.0000   1.0000   1.0000
     1.0000   1.0000   1.0000   1.0000   1.0000   1.0000   1.0000   1.0000
     1.0000   1.0000   1.0000   1.0000   1.0000   1.0000   1.0000   1.0000
     1.0000   1.0000   1.0000   1.0000   1.0000   1.0000   1.0000   1.0000
     1.0002   1.0003   0.9504   0.0015   0.0000   0.0000   0.0000   0.0000
     0.0000   0.0000   0.0000   0.0000   0.0000   0.0000   0.0000   0.0000
     0.0000   0.0000   0.0000   0.0000   0.0000   0.0000   0.0000   0.0000
     0.0000   0.0000   0.0000   0.0000   0.0000   0.0000   0.0000   0.0000
     0.0000   0.0000   0.0000   0.0000   0.0000   0.0000   0.0000   0.0000

          k = 0.0833 0.4330 0.0000 ( 17416 PWs)   bands (ev):

   -50.0585 -50.0585 -49.9915 -49.9707 -49.9363 -49.9347 -49.7861 -49.7861
   -49.3382 -49.3382 -26.6403 -26.6302 -26.5820 -26.5499 -26.5289 -26.5124
   -26.4446 -26.3964 -26.3451 -26.3196 -26.3038 -26.2896 -26.2748 -26.2487
   -26.2361 -26.2121 -26.1757 -26.1649 -26.1463 -26.1361 -26.1294 -26.1146
   -26.0190 -26.0189 -25.7673 -25.7673 -25.7126 -25.7126 -25.5138 -25.5138
    -7.8258  -7.7768  -7.6778  -7.6297  -7.5786  -7.4228  -7.2666  -7.1741
    -7.1520   0.4072   0.5838   0.8381   1.0509   1.2265   1.4104   1.6191
     1.8294   2.0350   2.1968   2.3629   2.4202   2.5197   2.5984   2.6651
     2.7146   2.7650   2.8048   2.8869   3.0333   3.1858   3.3295   3.5894
     3.6546   3.7788   3.8317   4.0681   5.6987   5.9814   6.4256   6.9127
     7.4775   7.6293   7.6474   8.1366   8.6258   8.6761   8.7999   8.9818
     9.0556   9.1979   9.2687   9.4207   9.4393   9.5108   9.5901   9.6766
     9.7121   9.7577   9.8061   9.8687   9.9065   9.9394  10.0148  10.1017
    10.1318  10.1621  10.1655  10.1748  10.2051  10.2726  10.4688  10.7328
    11.0686  11.3302  11.5014  11.6241  11.6479  11.7487  11.9344  12.0723

     occupation numbers 
     1.0000   1.0000   1.0000   1.0000   1.0000   1.0000   1.0000   1.0000
     1.0000   1.0000   1.0000   1.0000   1.0000   1.0000   1.0000   1.0000
     1.0000   1.0000   1.0000   1.0000   1.0000   1.0000   1.0000   1.0000
     1.0000   1.0000   1.0000   1.0000   1.0000   1.0000   1.0000   1.0000
     1.0000   1.0000   1.0000   1.0000   1.0000   1.0000   1.0000   1.0000
     1.0000   1.0000   1.0000   1.0000   1.0000   1.0000   1.0000   1.0000
     1.0000   1.0000   1.0000   1.0000   1.0000   1.0000   1.0000   1.0000
     1.0000   1.0000   1.0000   1.0000   1.0000   1.0000   1.0000   1.0000
     1.0000   1.0000   1.0000   1.0000   1.0000   1.0000   1.0000   1.0000
     1.0000   1.0000   1.0000   1.0000   1.0000   1.0000   1.0000   1.0000
     1.0200   1.0662   1.0385   0.0000   0.0000   0.0000   0.0000   0.0000
     0.0000   0.0000   0.0000   0.0000   0.0000   0.0000   0.0000   0.0000
     0.0000   0.0000   0.0000   0.0000   0.0000   0.0000   0.0000   0.0000
     0.0000   0.0000   0.0000   0.0000   0.0000   0.0000   0.0000   0.0000
     0.0000   0.0000   0.0000   0.0000   0.0000   0.0000   0.0000   0.0000

          k = 0.0833-0.6255 0.0000 ( 17393 PWs)   bands (ev):

   -50.0497 -50.0497 -49.9790 -49.9640 -49.9300 -49.9294 -49.7779 -49.7779
   -49.3307 -49.3307 -26.6967 -26.6852 -26.6349 -26.5782 -26.5658 -26.5534
   -26.4342 -26.4254 -26.3383 -26.3225 -26.3183 -26.3036 -26.2854 -26.2738
   -26.2524 -26.2273 -26.1843 -26.1737 -26.1499 -26.1432 -26.1315 -26.1269
   -26.0340 -26.0340 -25.8100 -25.8100 -25.7127 -25.7127 -25.5277 -25.5277
    -7.8334  -7.7608  -7.6374  -7.5627  -7.4735  -7.2736  -7.0826  -6.9752
    -6.9379  -0.0465   0.1656   0.4851   0.8085   1.1402   1.5046   1.7833
     1.9310   1.9858   2.3152   2.3390   2.4038   2.4115   2.4812   2.5131
     2.5627   2.6715   2.7356   2.8127   2.9943   3.1269   3.3127   3.5317
     3.6686   3.7362   3.7970   4.1051   5.5509   5.8442   6.3017   6.7990
     7.3893   7.8855   7.8882   8.0487   8.6480   9.0617   9.2260   9.3021
     9.3384   9.3996   9.4753   9.5210   9.5681   9.6653   9.7734   9.8107
     9.8982   9.9380   9.9774  10.0084  10.0270  10.0786  10.0970  10.1472
    10.1625  10.1746  10.2191  10.2271  10.3135  10.4208  10.5296  10.7258
    11.0544  11.4599  11.4878  11.5605  11.7554  11.9147  12.1019  12.3053

     occupation numbers 
     1.0000   1.0000   1.0000   1.0000   1.0000   1.0000   1.0000   1.0000
     1.0000   1.0000   1.0000   1.0000   1.0000   1.0000   1.0000   1.0000
     1.0000   1.0000   1.0000   1.0000   1.0000   1.0000   1.0000   1.0000
     1.0000   1.0000   1.0000   1.0000   1.0000   1.0000   1.0000   1.0000
     1.0000   1.0000   1.0000   1.0000   1.0000   1.0000   1.0000   1.0000
     1.0000   1.0000   1.0000   1.0000   1.0000   1.0000   1.0000   1.0000
     1.0000   1.0000   1.0000   1.0000   1.0000   1.0000   1.0000   1.0000
     1.0000   1.0000   1.0000   1.0000   1.0000   1.0000   1.0000   1.0000
     1.0000   1.0000   1.0000   1.0000   1.0000   1.0000   1.0000   1.0000
     1.0000   1.0000   1.0000   1.0000   1.0000   1.0000   1.0000   1.0000
     1.0019   0.0762   0.0719   0.0005   0.0000   0.0000   0.0000   0.0000
     0.0000   0.0000   0.0000   0.0000   0.0000   0.0000   0.0000   0.0000
     0.0000   0.0000   0.0000   0.0000   0.0000   0.0000   0.0000   0.0000
     0.0000   0.0000   0.0000   0.0000   0.0000   0.0000   0.0000   0.0000
     0.0000   0.0000   0.0000   0.0000   0.0000   0.0000   0.0000   0.0000

          k = 0.1667 0.2887 0.0000 ( 17381 PWs)   bands (ev):

   -50.0761 -50.0761 -50.0140 -49.9858 -49.9493 -49.9457 -49.8023 -49.8023
   -49.3530 -49.3530 -26.5512 -26.5474 -26.5168 -26.4895 -26.4818 -26.4531
   -26.4082 -26.3416 -26.3046 -26.2772 -26.2743 -26.2414 -26.2232 -26.2213
   -26.1996 -26.1705 -26.1680 -26.1567 -26.1437 -26.1318 -26.1109 -26.0925
   -26.0029 -26.0028 -25.7176 -25.7176 -25.6601 -25.6600 -25.4974 -25.4974
    -8.1134  -8.0407  -7.9134  -7.8313  -7.7575  -7.5892  -7.4227  -7.3315
    -7.3049   1.1743   1.1865   1.2471   1.2585   1.3430   1.5463   1.7412
     1.8925   1.9841   2.0050   2.4455   2.6950   2.7631   2.8160   2.8962
     2.9381   3.0006   3.0367   3.1982   3.2178   3.2896   3.3549   3.3917
     3.5982   3.6934   3.7426   3.7607   6.7938   6.8349   7.0073   7.1076
     7.2448   7.3321   7.6271   7.6543   8.0065   8.1731   8.2590   8.3270
     8.6406   8.8961   9.0508   9.1473   9.1803   9.2044   9.3428   9.3791
     9.4411   9.5183   9.5513   9.6498   9.6964   9.7373   9.8763   9.9517
     9.9840  10.0493  10.0925  10.1068  10.1396  10.3762  10.5236  10.5823
    10.6105  10.6307  10.7783  11.0103  11.2859  11.8500  11.8826  12.0995

     occupation numbers 
     1.0000   1.0000   1.0000   1.0000   1.0000   1.0000   1.0000   1.0000
     1.0000   1.0000   1.0000   1.0000   1.0000   1.0000   1.0000   1.0000
     1.0000   1.0000   1.0000   1.0000   1.0000   1.0000   1.0000   1.0000
     1.0000   1.0000   1.0000   1.0000   1.0000   1.0000   1.0000   1.0000
     1.0000   1.0000   1.0000   1.0000   1.0000   1.0000   1.0000   1.0000
     1.0000   1.0000   1.0000   1.0000   1.0000   1.0000   1.0000   1.0000
     1.0000   1.0000   1.0000   1.0000   1.0000   1.0000   1.0000   1.0000
     1.0000   1.0000   1.0000   1.0000   1.0000   1.0000   1.0000   1.0000
     1.0000   1.0000   1.0000   1.0000   1.0000   1.0000   1.0000   1.0000
     1.0000   1.0000   1.0000   1.0000   1.0000   1.0000   1.0000   1.0000
     1.0000   1.0003   1.0687   1.0238   0.0025   0.0000   0.0000   0.0000
     0.0000   0.0000   0.0000   0.0000   0.0000   0.0000   0.0000   0.0000
     0.0000   0.0000   0.0000   0.0000   0.0000   0.0000   0.0000   0.0000
     0.0000   0.0000   0.0000   0.0000   0.0000   0.0000   0.0000   0.0000
     0.0000   0.0000   0.0000   0.0000   0.0000   0.0000   0.0000   0.0000

          k = 0.1667 0.3849 0.0000 ( 17421 PWs)   bands (ev):

   -50.0609 -50.0609 -49.9947 -49.9726 -49.9380 -49.9362 -49.7883 -49.7883
   -49.3402 -49.3402 -26.5872 -26.5823 -26.5392 -26.5264 -26.5029 -26.4942
   -26.4608 -26.3838 -26.3367 -26.3318 -26.3248 -26.2676 -26.2606 -26.2464
   -26.2322 -26.2208 -26.1935 -26.1761 -26.1683 -26.1406 -26.1266 -26.1111
   -26.0470 -26.0468 -25.7297 -25.7297 -25.7128 -25.7128 -25.5367 -25.5367
    -7.7223  -7.7010  -7.6306  -7.6137  -7.5975  -7.4939  -7.3990  -7.3086
    -7.3065   0.8977   1.0228   1.1936   1.2397   1.2776   1.3481   1.5284
     1.7320   2.0716   2.1418   2.4541   2.5462   2.6205   2.6847   2.7091
     2.7320   2.7926   2.8507   2.9722   3.0110   3.0675   3.1216   3.1350
     3.1818   3.2768   3.4451   3.6438   6.5826   6.6848   7.0057   7.3316
     7.4074   7.5208   7.7559   7.9668   8.0621   8.3640   8.5788   8.6874
     8.7179   9.0164   9.2092   9.3264   9.4869   9.5156   9.5658   9.6097
     9.6541   9.7018   9.7445   9.7909   9.8778  10.0047  10.0678  10.1082
    10.1420  10.1613  10.2425  10.2434  10.4849  10.6032  10.6678  10.8319
    10.9699  11.0564  11.1680  11.3174  11.4694  11.8072  11.9025  12.0152

     occupation numbers 
     1.0000   1.0000   1.0000   1.0000   1.0000   1.0000   1.0000   1.0000
     1.0000   1.0000   1.0000   1.0000   1.0000   1.0000   1.0000   1.0000
     1.0000   1.0000   1.0000   1.0000   1.0000   1.0000   1.0000   1.0000
     1.0000   1.0000   1.0000   1.0000   1.0000   1.0000   1.0000   1.0000
     1.0000   1.0000   1.0000   1.0000   1.0000   1.0000   1.0000   1.0000
     1.0000   1.0000   1.0000   1.0000   1.0000   1.0000   1.0000   1.0000
     1.0000   1.0000   1.0000   1.0000   1.0000   1.0000   1.0000   1.0000
     1.0000   1.0000   1.0000   1.0000   1.0000   1.0000   1.0000   1.0000
     1.0000   1.0000   1.0000   1.0000   1.0000   1.0000   1.0000   1.0000
     1.0000   1.0000   1.0000   1.0000   1.0000   1.0000   1.0000   1.0003
     1.0034   1.0438   0.5777   0.0091   0.0003   0.0000   0.0000   0.0000
     0.0000   0.0000   0.0000   0.0000   0.0000   0.0000   0.0000   0.0000
     0.0000   0.0000   0.0000   0.0000   0.0000   0.0000   0.0000   0.0000
     0.0000   0.0000   0.0000   0.0000   0.0000   0.0000   0.0000   0.0000
     0.0000   0.0000   0.0000   0.0000   0.0000   0.0000   0.0000   0.0000

          k = 0.1667-0.6736 0.0000 ( 17428 PWs)   bands (ev):

   -50.0498 -50.0498 -49.9792 -49.9640 -49.9300 -49.9293 -49.7780 -49.7780
   -49.3307 -49.3307 -26.6462 -26.6373 -26.5894 -26.5477 -26.5362 -26.5213
   -26.4253 -26.4059 -26.3719 -26.3630 -26.3424 -26.2980 -26.2959 -26.2694
   -26.2632 -26.2380 -26.2110 -26.1888 -26.1721 -26.1431 -26.1330 -26.1296
   -26.0779 -26.0777 -25.7767 -25.7767 -25.7117 -25.7117 -25.5662 -25.5662
    -7.6688  -7.6278  -7.5441  -7.5141  -7.4697  -7.3292  -7.2033  -7.1178
    -7.1109   0.4187   0.5753   0.8088   1.0159   1.2158   1.4684   1.7250
     1.9351   2.0615   2.3192   2.3433   2.4252   2.5182   2.5564   2.6326
     2.6557   2.6934   2.7467   2.7532   2.7760   2.8390   2.9246   3.0198
     3.0417   3.0923   3.4100   3.6891   6.4160   6.5464   6.8865   7.3193
     7.6792   7.7197   7.9045   8.4172   8.4451   8.6322   8.8481   8.9555
     9.0459   9.1405   9.2993   9.4317   9.5412   9.5836   9.6894   9.7753
     9.8040   9.8477   9.9006   9.9510  10.0144  10.0588  10.1242  10.1590
    10.1705  10.1746  10.3874  10.3876  10.5794  10.6033  10.7401  10.9452
    11.1145  11.2748  11.4936  11.5933  11.6714  11.8211  11.8923  12.1229

     occupation numbers 
     1.0000   1.0000   1.0000   1.0000   1.0000   1.0000   1.0000   1.0000
     1.0000   1.0000   1.0000   1.0000   1.0000   1.0000   1.0000   1.0000
     1.0000   1.0000   1.0000   1.0000   1.0000   1.0000   1.0000   1.0000
     1.0000   1.0000   1.0000   1.0000   1.0000   1.0000   1.0000   1.0000
     1.0000   1.0000   1.0000   1.0000   1.0000   1.0000   1.0000   1.0000
     1.0000   1.0000   1.0000   1.0000   1.0000   1.0000   1.0000   1.0000
     1.0000   1.0000   1.0000   1.0000   1.0000   1.0000   1.0000   1.0000
     1.0000   1.0000   1.0000   1.0000   1.0000   1.0000   1.0000   1.0000
     1.0000   1.0000   1.0000   1.0000   1.0000   1.0000   1.0000   1.0000
     1.0000   1.0000   1.0000   1.0000   1.0000   1.0000   1.0000   1.0002
     0.9512   0.7736   0.0493   0.0000   0.0000   0.0000   0.0000   0.0000
     0.0000   0.0000   0.0000   0.0000   0.0000   0.0000   0.0000   0.0000
     0.0000   0.0000   0.0000   0.0000   0.0000   0.0000   0.0000   0.0000
     0.0000   0.0000   0.0000   0.0000   0.0000   0.0000   0.0000   0.0000
     0.0000   0.0000   0.0000   0.0000   0.0000   0.0000   0.0000   0.0000

          k = 0.1667-0.5774 0.0000 ( 17399 PWs)   bands (ev):

   -50.0457 -50.0457 -49.9727 -49.9615 -49.9271 -49.9268 -49.7742 -49.7742
   -49.3273 -49.3273 -26.6693 -26.6589 -26.6099 -26.5538 -26.5466 -26.5354
   -26.4227 -26.4186 -26.3741 -26.3718 -26.3389 -26.3283 -26.3038 -26.2729
   -26.2613 -26.2526 -26.2085 -26.2001 -26.1706 -26.1524 -26.1337 -26.1332
   -26.0885 -26.0884 -25.7939 -25.7939 -25.7110 -25.7110 -25.5771 -25.5771
    -7.6902  -7.6349  -7.5356  -7.4887  -7.4238  -7.2548  -7.0998  -7.0103
    -6.9938   0.2106   0.3902   0.6650   0.9401   1.2246   1.5520   1.8086
     1.9443   2.0010   2.3340   2.3776   2.4109   2.4582   2.5050   2.5503
     2.5798   2.6068   2.6505   2.7186   2.7498   2.8406   2.8602   2.9663
     3.0058   3.0928   3.4224   3.7216   6.3633   6.5016   6.8445   7.2831
     7.7706   7.8521   7.9128   8.4002   8.8514   9.0691   9.0738   9.0916
     9.0993   9.3266   9.3564   9.4562   9.4872   9.5079   9.6168   9.7446
     9.8494   9.9059   9.9155   9.9582  10.0051  10.0332  10.1162  10.1626
    10.1657  10.1701  10.4593  10.4593  10.5604  10.6179  10.7790  10.9882
    11.1284  11.2860  11.5118  11.5831  11.6996  11.9095  11.9751  12.2291

     occupation numbers 
     1.0000   1.0000   1.0000   1.0000   1.0000   1.0000   1.0000   1.0000
     1.0000   1.0000   1.0000   1.0000   1.0000   1.0000   1.0000   1.0000
     1.0000   1.0000   1.0000   1.0000   1.0000   1.0000   1.0000   1.0000
     1.0000   1.0000   1.0000   1.0000   1.0000   1.0000   1.0000   1.0000
     1.0000   1.0000   1.0000   1.0000   1.0000   1.0000   1.0000   1.0000
     1.0000   1.0000   1.0000   1.0000   1.0000   1.0000   1.0000   1.0000
     1.0000   1.0000   1.0000   1.0000   1.0000   1.0000   1.0000   1.0000
     1.0000   1.0000   1.0000   1.0000   1.0000   1.0000   1.0000   1.0000
     1.0000   1.0000   1.0000   1.0000   1.0000   1.0000   1.0000   1.0000
     1.0000   1.0000   1.0000   1.0000   1.0000   1.0000   1.0000   1.0000
     0.4967   0.1501   0.0403   0.0000   0.0000   0.0000   0.0000   0.0000
     0.0000   0.0000   0.0000   0.0000   0.0000   0.0000   0.0000   0.0000
     0.0000   0.0000   0.0000   0.0000   0.0000   0.0000   0.0000   0.0000
     0.0000   0.0000   0.0000   0.0000   0.0000   0.0000   0.0000   0.0000
     0.0000   0.0000   0.0000   0.0000   0.0000   0.0000   0.0000   0.0000

          k = 0.2500-0.7217 0.0000 ( 17473 PWs)   bands (ev):

   -50.0498 -50.0498 -49.9792 -49.9640 -49.9299 -49.9293 -49.7780 -49.7780
   -49.3307 -49.3307 -26.6056 -26.6021 -26.5581 -26.5450 -26.5290 -26.4888
   -26.4425 -26.4129 -26.3877 -26.3747 -26.3577 -26.2897 -26.2869 -26.2811
   -26.2514 -26.2484 -26.2295 -26.2085 -26.1734 -26.1419 -26.1359 -26.1355
   -26.1025 -26.1013 -25.7527 -25.7527 -25.7132 -25.7132 -25.5909 -25.5909
    -7.5025  -7.5023  -7.4789  -7.4789  -7.4331  -7.3979  -7.3756  -7.2200
    -7.2200   0.8607   0.8927   0.9978   1.1002   1.2096   1.4159   1.6728
     1.9284   2.1828   2.3298   2.3464   2.4090   2.4338   2.4585   2.5102
     2.5109   2.5841   2.6507   2.6691   2.7136   2.7670   2.9101   2.9253
     3.0618   3.1067   3.1718   3.2089   7.0372   7.0439   7.4204   7.4536
     7.5862   7.6520   7.8975   7.9919   8.3085   8.4250   8.6575   8.9309
     8.9948   9.0300   9.2386   9.4940   9.5312   9.5535   9.6791   9.6919
     9.6977   9.7859   9.8186   9.8930  10.0025  10.0837  10.1306  10.1412
    10.1556  10.1712  10.3858  10.3859  10.8166  10.9564  11.0071  11.0991
    11.2373  11.3348  11.4455  11.6550  11.6920  11.7197  11.7950  11.8626

     occupation numbers 
     1.0000   1.0000   1.0000   1.0000   1.0000   1.0000   1.0000   1.0000
     1.0000   1.0000   1.0000   1.0000   1.0000   1.0000   1.0000   1.0000
     1.0000   1.0000   1.0000   1.0000   1.0000   1.0000   1.0000   1.0000
     1.0000   1.0000   1.0000   1.0000   1.0000   1.0000   1.0000   1.0000
     1.0000   1.0000   1.0000   1.0000   1.0000   1.0000   1.0000   1.0000
     1.0000   1.0000   1.0000   1.0000   1.0000   1.0000   1.0000   1.0000
     1.0000   1.0000   1.0000   1.0000   1.0000   1.0000   1.0000   1.0000
     1.0000   1.0000   1.0000   1.0000   1.0000   1.0000   1.0000   1.0000
     1.0000   1.0000   1.0000   1.0000   1.0000   1.0000   1.0000   1.0000
     1.0000   1.0000   1.0000   1.0000   1.0000   1.0000   1.0049   1.0117
     1.0820   1.0289   0.0582   0.0041   0.0000   0.0000   0.0000   0.0000
     0.0000   0.0000   0.0000   0.0000   0.0000   0.0000   0.0000   0.0000
     0.0000   0.0000   0.0000   0.0000   0.0000   0.0000   0.0000   0.0000
     0.0000   0.0000   0.0000   0.0000   0.0000   0.0000   0.0000   0.0000
     0.0000   0.0000   0.0000   0.0000   0.0000   0.0000   0.0000   0.0000

          k = 0.2500-0.6255 0.0000 ( 17403 PWs)   bands (ev):

   -50.0434 -50.0434 -49.9686 -49.9605 -49.9254 -49.9253 -49.7720 -49.7720
   -49.3253 -49.3253 -26.6147 -26.6073 -26.5627 -26.5368 -26.5204 -26.4963
   -26.4574 -26.4530 -26.4104 -26.3888 -26.3728 -26.3411 -26.3204 -26.2958
   -26.2539 -26.2454 -26.2323 -26.2087 -26.1868 -26.1716 -26.1566 -26.1533
   -26.1181 -26.1178 -25.7622 -25.7622 -25.7112 -25.7112 -25.6297 -25.6297
    -7.4955  -7.4782  -7.4297  -7.4239  -7.3888  -7.2866  -7.2100  -7.1024
    -7.1021   0.7120   0.8201   0.9909   1.1387   1.2896   1.5015   1.7070
     1.8749   2.0347   2.1070   2.2266   2.2712   2.3310   2.3473   2.4003
     2.4421   2.4964   2.5246   2.6359   2.6842   2.7500   2.7618   2.8295
     2.8472   2.9330   3.1200   3.2557   7.1264   7.1400   7.4771   7.6753
     7.7494   7.9199   8.3155   8.3575   8.5550   8.6882   8.8775   8.9323
     9.1119   9.1854   9.2782   9.3170   9.3571   9.4408   9.4983   9.6365
     9.6897   9.7940   9.8031   9.8902  10.0015  10.0266  10.1056  10.1160
    10.1356  10.1574  10.4555  10.4558  11.0174  11.0469  11.1557  11.1992
    11.3538  11.4171  11.5441  11.6494  11.7177  11.7916  11.9142  11.9547

     occupation numbers 
     1.0000   1.0000   1.0000   1.0000   1.0000   1.0000   1.0000   1.0000
     1.0000   1.0000   1.0000   1.0000   1.0000   1.0000   1.0000   1.0000
     1.0000   1.0000   1.0000   1.0000   1.0000   1.0000   1.0000   1.0000
     1.0000   1.0000   1.0000   1.0000   1.0000   1.0000   1.0000   1.0000
     1.0000   1.0000   1.0000   1.0000   1.0000   1.0000   1.0000   1.0000
     1.0000   1.0000   1.0000   1.0000   1.0000   1.0000   1.0000   1.0000
     1.0000   1.0000   1.0000   1.0000   1.0000   1.0000   1.0000   1.0000
     1.0000   1.0000   1.0000   1.0000   1.0000   1.0000   1.0000   1.0000
     1.0000   1.0000   1.0000   1.0000   1.0000   1.0000   1.0000   1.0000
     1.0000   1.0000   1.0000   1.0000   1.0000   1.0000   1.0198   0.9646
     0.6137   0.0337   0.0000   0.0000   0.0000   0.0000   0.0000   0.0000
     0.0000   0.0000   0.0000   0.0000   0.0000   0.0000   0.0000   0.0000
     0.0000   0.0000   0.0000   0.0000   0.0000   0.0000   0.0000   0.0000
     0.0000   0.0000   0.0000   0.0000   0.0000   0.0000   0.0000   0.0000
     0.0000   0.0000   0.0000   0.0000   0.0000   0.0000   0.0000   0.0000

          k = 0.3333-0.5774 0.0000 ( 17397 PWs)   bands (ev):

   -50.0410 -50.0410 -49.9620 -49.9620 -49.9238 -49.9238 -49.7698 -49.7698
   -49.3233 -49.3233 -26.5553 -26.5553 -26.5534 -26.5438 -26.5155 -26.5155
   -26.4980 -26.4453 -26.4453 -26.3992 -26.3874 -26.3874 -26.3077 -26.3077
   -26.2527 -26.2511 -26.2099 -26.2099 -26.1972 -26.1972 -26.1940 -26.1806
   -26.1179 -26.1179 -25.7425 -25.7425 -25.7112 -25.7112 -25.6682 -25.6682
    -7.3933  -7.3933  -7.3877  -7.3877  -7.3059  -7.2943  -7.2943  -7.1093
    -7.1093   1.2199   1.2241   1.2688   1.2688   1.3263   1.3263   1.3498
     1.3498   1.8662   1.8663   2.2116   2.2437   2.2437   2.2739   2.3425
     2.3425   2.3769   2.3769   2.7856   2.7856   2.8042   2.8414   2.8414
     2.8794   2.8965   2.8966   2.8966   7.3866   7.3866   7.7951   7.7951
     8.3052   8.3492   8.3492   8.4004   8.5513   8.5513   8.5836   8.9510
     8.9510   8.9785   9.1890   9.2522   9.2522   9.4504   9.4504   9.4787
     9.5642   9.6979   9.6979  10.0210  10.0210  10.0333  10.0859  10.0859
    10.1150  10.1302  10.4646  10.4646  11.2497  11.2720  11.2720  11.3392
    11.3836  11.3836  11.4368  11.5491  11.5491  12.2507  12.2507  12.2712

     occupation numbers 
     1.0000   1.0000   1.0000   1.0000   1.0000   1.0000   1.0000   1.0000
     1.0000   1.0000   1.0000   1.0000   1.0000   1.0000   1.0000   1.0000
     1.0000   1.0000   1.0000   1.0000   1.0000   1.0000   1.0000   1.0000
     1.0000   1.0000   1.0000   1.0000   1.0000   1.0000   1.0000   1.0000
     1.0000   1.0000   1.0000   1.0000   1.0000   1.0000   1.0000   1.0000
     1.0000   1.0000   1.0000   1.0000   1.0000   1.0000   1.0000   1.0000
     1.0000   1.0000   1.0000   1.0000   1.0000   1.0000   1.0000   1.0000
     1.0000   1.0000   1.0000   1.0000   1.0000   1.0000   1.0000   1.0000
     1.0000   1.0000   1.0000   1.0000   1.0000   1.0000   1.0000   1.0000
     1.0000   1.0000   1.0000   1.0000   1.0018   1.0018   0.3703   0.3703
     0.0000   0.0000   0.0000   0.0000   0.0000   0.0000   0.0000   0.0000
     0.0000   0.0000   0.0000   0.0000   0.0000   0.0000   0.0000   0.0000
     0.0000   0.0000   0.0000   0.0000   0.0000   0.0000   0.0000   0.0000
     0.0000   0.0000   0.0000   0.0000   0.0000   0.0000   0.0000   0.0000
     0.0000   0.0000   0.0000   0.0000   0.0000   0.0000   0.0000   0.0000

     the Fermi energy is     7.7890 ev

!    total energy              =   -1383.70579076 Ry
     estimated scf accuracy    <          7.6E-10 Ry
     smearing contrib. (-TS)   =      -0.00042590 Ry
     internal energy E=F+TS    =   -1383.70536485 Ry

     The total energy is F=E-TS. E is the sum of the following terms:
     one-electron contribution =  -31119.87996781 Ry
     hartree contribution      =   15598.15994229 Ry
     xc contribution           =    -238.31648883 Ry
     ewald contribution        =   14376.33114950 Ry

     convergence has been achieved in  14 iterations

     negative rho (up, down):  2.196E-04 0.000E+00

     Forces acting on atoms (cartesian axes, Ry/au):

     atom    1 type  1   force =    -0.00000000   -0.00000000    0.00005681
     atom    2 type  2   force =     0.00000000    0.00000000   -0.00096232
     atom    3 type  1   force =     0.00000000    0.00000000    0.00389795
     atom    4 type  2   force =    -0.00000000   -0.00000000   -0.00181947
     atom    5 type  1   force =     0.00000000   -0.00000000   -0.00334572
     atom    6 type  2   force =    -0.00000000   -0.00000000    0.00027521
     atom    7 type  1   force =     0.00000000    0.00000000   -0.00727133
     atom    8 type  2   force =    -0.00000000    0.00000000    0.00281785
     atom    9 type  1   force =     0.00000000   -0.00000000    0.00702832
     atom   10 type  2   force =    -0.00000000   -0.00000000    0.00000000
     atom   11 type  1   force =     0.00000000   -0.00000000   -0.00702832
     atom   12 type  2   force =    -0.00000000    0.00000000   -0.00281785
     atom   13 type  1   force =     0.00000000    0.00000000    0.00727133
     atom   14 type  2   force =     0.00000000   -0.00000000   -0.00027521
     atom   15 type  1   force =    -0.00000000   -0.00000000    0.00334572
     atom   16 type  2   force =     0.00000000    0.00000000    0.00181947
     atom   17 type  1   force =     0.00000000   -0.00000000   -0.00389795
     atom   18 type  2   force =    -0.00000000   -0.00000000    0.00096232
     atom   19 type  1   force =     0.00000000    0.00000000   -0.00005681
     The non-local contrib.  to forces
     atom    1 type  1   force =     0.00000000    0.00000000    0.05811799
     atom    2 type  2   force =     0.00000000    0.00000000    0.03812989
     atom    3 type  1   force =     0.00000000    0.00000000   -0.02390075
     atom    4 type  2   force =     0.00000000   -0.00000000    0.00570875
     atom    5 type  1   force =     0.00000000    0.00000000    0.01347404
     atom    6 type  2   force =     0.00000000    0.00000000   -0.00063168
     atom    7 type  1   force =     0.00000000    0.00000000   -0.00550364
     atom    8 type  2   force =     0.00000000   -0.00000000   -0.00118350
     atom    9 type  1   force =    -0.00000000   -0.00000000    0.00225653
     atom   10 type  2   force =     0.00000000    0.00000000    0.00000000
     atom   11 type  1   force =     0.00000000   -0.00000000   -0.00225653
     atom   12 type  2   force =    -0.00000000    0.00000000    0.00118350
     atom   13 type  1   force =     0.00000000    0.00000000    0.00550364
     atom   14 type  2   force =     0.00000000    0.00000000    0.00063168
     atom   15 type  1   force =     0.00000000    0.00000000   -0.01347404
     atom   16 type  2   force =     0.00000000    0.00000000   -0.00570875
     atom   17 type  1   force =    -0.00000000    0.00000000    0.02390075
     atom   18 type  2   force =     0.00000000    0.00000000   -0.03812989
     atom   19 type  1   force =     0.00000000    0.00000000   -0.05811799
     The ionic contribution  to forces
     atom    1 type  1   force =     0.00000000   -0.00000000 -357.80980104
     atom    2 type  2   force =    -0.00000000    0.00000000 -133.44169739
     atom    3 type  1   force =     0.00000000   -0.00000000 -278.67868211
     atom    4 type  2   force =    -0.00000000   -0.00000000  -99.83274621
     atom    5 type  1   force =    -0.00000000    0.00000000 -200.43168539
     atom    6 type  2   force =     0.00000000   -0.00000000  -66.81022296
     atom    7 type  1   force =    -0.00000000   -0.00000000 -119.95934460
     atom    8 type  2   force =    -0.00000000    0.00000000  -33.32237095
     atom    9 type  1   force =     0.00000000   -0.00000000  -39.98997633
     atom   10 type  2   force =    -0.00000000   -0.00000000    0.00000000
     atom   11 type  1   force =    -0.00000000    0.00000000   39.98997633
     atom   12 type  2   force =     0.00000000   -0.00000000   33.32237095
     atom   13 type  1   force =    -0.00000000   -0.00000000  119.95934460
     atom   14 type  2   force =    -0.00000000    0.00000000   66.81022296
     atom   15 type  1   force =     0.00000000   -0.00000000  200.43168539
     atom   16 type  2   force =    -0.00000000   -0.00000000   99.83274621
     atom   17 type  1   force =    -0.00000000    0.00000000  278.67868211
     atom   18 type  2   force =     0.00000000   -0.00000000  133.44169739
     atom   19 type  1   force =    -0.00000000    0.00000000  357.80980104
     The local contribution  to forces
     atom    1 type  1   force =     0.00000000   -0.00000000  357.76337396
     atom    2 type  2   force =    -0.00000001    0.00000001  133.40354002
     atom    3 type  1   force =     0.00000006   -0.00000004  278.70508552
     atom    4 type  2   force =     0.00000000   -0.00000000   99.82521036
     atom    5 type  1   force =    -0.00000005    0.00000006  200.41563574
     atom    6 type  2   force =     0.00000001   -0.00000001   66.81129015
     atom    7 type  1   force =    -0.00000000   -0.00000000  119.95779563
     atom    8 type  2   force =    -0.00000001    0.00000001   33.32634003
     atom    9 type  1   force =     0.00000006   -0.00000004   39.99486234
     atom   10 type  2   force =     0.00000000   -0.00000000    0.00000000
     atom   11 type  1   force =    -0.00000005    0.00000006  -39.99486234
     atom   12 type  2   force =     0.00000001   -0.00000001  -33.32634003
     atom   13 type  1   force =     0.00000000    0.00000000 -119.95779563
     atom   14 type  2   force =    -0.00000001    0.00000001  -66.81129015
     atom   15 type  1   force =     0.00000006   -0.00000004 -200.41563574
     atom   16 type  2   force =    -0.00000000    0.00000000  -99.82521036
     atom   17 type  1   force =    -0.00000005    0.00000006 -278.70508552
     atom   18 type  2   force =     0.00000001   -0.00000001 -133.40354002
     atom   19 type  1   force =    -0.00000000    0.00000000 -357.76337396
     The core correction contribution to forces
     atom    1 type  1   force =    -0.00000000    0.00000000   -0.01165861
     atom    2 type  2   force =     0.00000000   -0.00000000   -0.00095557
     atom    3 type  1   force =    -0.00000000    0.00000000    0.00136616
     atom    4 type  2   force =     0.00000000   -0.00000000    0.00001718
     atom    5 type  1   force =     0.00000000   -0.00000000   -0.00070639
     atom    6 type  2   force =    -0.00000000    0.00000000   -0.00013775
     atom    7 type  1   force =     0.00000000   -0.00000000   -0.00017814
     atom    8 type  2   force =     0.00000000   -0.00000000    0.00004224
     atom    9 type  1   force =    -0.00000000    0.00000000   -0.00010895
     atom   10 type  2   force =     0.00000000    0.00000000   -0.00000000
     atom   11 type  1   force =     0.00000000   -0.00000000    0.00010895
     atom   12 type  2   force =    -0.00000000    0.00000000   -0.00004224
     atom   13 type  1   force =    -0.00000000    0.00000000    0.00017814
     atom   14 type  2   force =     0.00000000   -0.00000000    0.00013775
     atom   15 type  1   force =    -0.00000000    0.00000000    0.00070639
     atom   16 type  2   force =    -0.00000000    0.00000000   -0.00001718
     atom   17 type  1   force =     0.00000000   -0.00000000   -0.00136616
     atom   18 type  2   force =    -0.00000000    0.00000000    0.00095557
     atom   19 type  1   force =     0.00000000   -0.00000000    0.01165861
     The Hubbard contrib.    to forces
     atom    1 type  1   force =     0.00000000    0.00000000    0.00000000
     atom    2 type  2   force =     0.00000000    0.00000000    0.00000000
     atom    3 type  1   force =     0.00000000    0.00000000    0.00000000
     atom    4 type  2   force =     0.00000000    0.00000000    0.00000000
     atom    5 type  1   force =     0.00000000    0.00000000    0.00000000
     atom    6 type  2   force =     0.00000000    0.00000000    0.00000000
     atom    7 type  1   force =     0.00000000    0.00000000    0.00000000
     atom    8 type  2   force =     0.00000000    0.00000000    0.00000000
     atom    9 type  1   force =     0.00000000    0.00000000    0.00000000
     atom   10 type  2   force =     0.00000000    0.00000000    0.00000000
     atom   11 type  1   force =     0.00000000    0.00000000    0.00000000
     atom   12 type  2   force =     0.00000000    0.00000000    0.00000000
     atom   13 type  1   force =     0.00000000    0.00000000    0.00000000
     atom   14 type  2   force =     0.00000000    0.00000000    0.00000000
     atom   15 type  1   force =     0.00000000    0.00000000    0.00000000
     atom   16 type  2   force =     0.00000000    0.00000000    0.00000000
     atom   17 type  1   force =     0.00000000    0.00000000    0.00000000
     atom   18 type  2   force =     0.00000000    0.00000000    0.00000000
     atom   19 type  1   force =     0.00000000    0.00000000    0.00000000
     The SCF correction term to forces
     atom    1 type  1   force =     0.00000000   -0.00000000    0.00002450
     atom    2 type  2   force =    -0.00000000    0.00000000    0.00002073
     atom    3 type  1   force =    -0.00000000    0.00000000    0.00002914
     atom    4 type  2   force =     0.00000000   -0.00000000   -0.00000955
     atom    5 type  1   force =     0.00000000    0.00000000   -0.00006372
     atom    6 type  2   force =     0.00000000    0.00000000   -0.00002255
     atom    7 type  1   force =     0.00000000   -0.00000000   -0.00000000
     atom    8 type  2   force =     0.00000000   -0.00000000   -0.00000000
     atom    9 type  1   force =    -0.00000000   -0.00000000   -0.00000000
     atom   10 type  2   force =     0.00000000    0.00000000   -0.00000000
     atom   11 type  1   force =    -0.00000000   -0.00000000    0.00000000
     atom   12 type  2   force =    -0.00000000    0.00000000    0.00000000
     atom   13 type  1   force =    -0.00000000   -0.00000000    0.00000000
     atom   14 type  2   force =    -0.00000000   -0.00000000    0.00002255
     atom   15 type  1   force =    -0.00000000    0.00000000    0.00006372
     atom   16 type  2   force =    -0.00000000    0.00000000    0.00000955
     atom   17 type  1   force =     0.00000000   -0.00000000   -0.00002914
     atom   18 type  2   force =     0.00000000   -0.00000000   -0.00002073
     atom   19 type  1   force =    -0.00000000    0.00000000   -0.00002450

     Total force =     0.007836     Total SCF correction =     0.000114


     Computing stress (Cartesian axis) and pressure


     negative rho (up, down):  2.196E-04 0.000E+00
          total   stress  (Ry/bohr**3)                   (kbar)     P=        2.33
   0.00002034  -0.00000000   0.00000000            2.99       -0.00        0.00
  -0.00000000   0.00002034   0.00000000           -0.00        2.99        0.00
   0.00000000  -0.00000000   0.00000682            0.00       -0.00        1.00

     kinetic stress (kbar)  23061.02      0.00      0.00
                                0.00  23061.02      0.00
                                0.00      0.00  22971.45

     local   stress (kbar)**********      0.00     -0.00
                                0.00**********      0.00
                               -0.00      0.002050808.35

     nonloc. stress (kbar)      0.88     -0.00      0.00
                               -0.00      0.88     -0.00
                                0.00     -0.00     41.67

     hartree stress (kbar)1026467.03     -0.00      0.00
                               -0.001026467.03     -0.00
                                0.00     -0.00**********

     exc-cor stress (kbar)  -1520.86     -0.00     -0.00
                               -0.00  -1520.86      0.00
                               -0.00      0.00  -1524.41

     corecor stress (kbar)  -3162.14      0.00     -0.00
                                0.00  -3162.14      0.00
                               -0.00      0.00  -3161.82

     ewald   stress (kbar)1004216.24     -0.00      0.00
                               -0.001004216.24     -0.00
                                0.00     -0.00**********

     hubbard stress (kbar)      0.00      0.00      0.00
                                0.00      0.00      0.00
                                0.00      0.00      0.00

     DFT-D   stress (kbar)      0.00      0.00      0.00
                                0.00      0.00      0.00
                                0.00      0.00      0.00

     XDM     stress (kbar)      0.00      0.00      0.00
                                0.00      0.00      0.00
                                0.00      0.00      0.00

     dft-nl  stress (kbar)      0.00      0.00      0.00
                                0.00      0.00      0.00
                                0.00      0.00      0.00

     TS-vdW  stress (kbar)      0.00      0.00      0.00
                                0.00      0.00      0.00
                                0.00      0.00      0.00


     Energy error            =      7.8E-04
     Gradient error          =      3.9E-03

     number of scf cycles    =   4
     number of bfgs steps    =   3

     energy   old            =   -1383.7050067492 Ry
     energy   new            =   -1383.7057907568 Ry

     CASE: energy  _new < energy  _old

     new trust radius        =       0.0037921446 bohr
     new conv_thr            =       0.0000000004 Ry


ATOMIC_POSITIONS (angstrom)
Ti           -0.0000000000       -0.0000000000       10.0716539114
N             1.5004805900        0.8663028720       11.1751509056
Ti            3.0009611790        1.7326057450       12.4121112007
N            -0.0000000000        0.0000000000       13.6739518002
Ti            1.5004805900        0.8663028720       14.9212867834
N             3.0009611790        1.7326057450       16.1207733480
Ti            0.0000000000        0.0000000000       17.3508236270    0   0   0
N             1.5004805900        0.8663028720       18.5759608990    0   0   0
Ti            3.0009611790        1.7326057450       19.8010981700    0   0   0
N             0.0000000000        0.0000000000       21.0262354410    0   0   0
Ti            1.5004805900        0.8663028720       22.2513727120    0   0   0
N             3.0009611790        1.7326057450       23.4765099830    0   0   0
Ti            0.0000000000        0.0000000000       24.7016472550    0   0   0
N             1.5004805900        0.8663028720       25.9316975340
Ti            3.0009611790        1.7326057450       27.1311840986
N             0.0000000000       -0.0000000000       28.3785190818
Ti            1.5004805900        0.8663028720       29.6403596813
N             3.0009611790        1.7326057450       30.8773199764
Ti            0.0000000000        0.0000000000       31.9808169706



     Writing output data file ./tmp/tin111.save/
     NEW-OLD atomic charge density approx. for the potential

     Check: negative core charge=   -0.000003

     negative rho (up, down):  2.200E-04 0.000E+00

     total cpu time spent up to now is     1596.0 secs

     Self-consistent Calculation

     iteration #  1     ecut=    60.00 Ry     beta= 0.20
     Davidson diagonalization with overlap
     ethr =  1.00E-06,  avg # of iterations =  3.0

     Threshold (ethr) on eigenvalues was too large:
     Diagonalizing with lowered threshold

     Davidson diagonalization with overlap
     ethr =  3.66E-08,  avg # of iterations =  1.9

     negative rho (up, down):  2.200E-04 0.000E+00

     total cpu time spent up to now is     1645.6 secs

     total energy              =   -1383.70581831 Ry
     estimated scf accuracy    <       0.00006393 Ry

     iteration #  2     ecut=    60.00 Ry     beta= 0.20
     Davidson diagonalization with overlap
     ethr =  3.87E-08,  avg # of iterations =  2.0

     negative rho (up, down):  2.205E-04 0.000E+00

     total cpu time spent up to now is     1666.3 secs

     total energy              =   -1383.70556947 Ry
     estimated scf accuracy    <       0.04845136 Ry

     iteration #  3     ecut=    60.00 Ry     beta= 0.20
     Davidson diagonalization with overlap
     ethr =  3.87E-08,  avg # of iterations =  2.0

     negative rho (up, down):  2.204E-04 0.000E+00

     total cpu time spent up to now is     1687.8 secs

     total energy              =   -1383.70581881 Ry
     estimated scf accuracy    <       0.00100846 Ry

     iteration #  4     ecut=    60.00 Ry     beta= 0.20
     Davidson diagonalization with overlap
     ethr =  3.87E-08,  avg # of iterations =  1.1

     negative rho (up, down):  2.203E-04 0.000E+00

     total cpu time spent up to now is     1705.3 secs

     total energy              =   -1383.70583510 Ry
     estimated scf accuracy    <       0.00006774 Ry

     iteration #  5     ecut=    60.00 Ry     beta= 0.20
     Davidson diagonalization with overlap
     ethr =  3.87E-08,  avg # of iterations =  1.0

     negative rho (up, down):  2.202E-04 0.000E+00

     total cpu time spent up to now is     1723.4 secs

     total energy              =   -1383.70583739 Ry
     estimated scf accuracy    <       0.00000323 Ry

     iteration #  6     ecut=    60.00 Ry     beta= 0.20
     Davidson diagonalization with overlap
     ethr =  1.96E-09,  avg # of iterations =  1.2

     negative rho (up, down):  2.201E-04 0.000E+00

     total cpu time spent up to now is     1742.0 secs

     total energy              =   -1383.70583747 Ry
     estimated scf accuracy    <       0.00000081 Ry

     iteration #  7     ecut=    60.00 Ry     beta= 0.20
     Davidson diagonalization with overlap
     ethr =  4.89E-10,  avg # of iterations =  1.8

     negative rho (up, down):  2.200E-04 0.000E+00

     total cpu time spent up to now is     1762.1 secs

     total energy              =   -1383.70583747 Ry
     estimated scf accuracy    <       0.00000033 Ry

     iteration #  8     ecut=    60.00 Ry     beta= 0.20
     Davidson diagonalization with overlap
     ethr =  1.97E-10,  avg # of iterations =  2.0

     negative rho (up, down):  2.199E-04 0.000E+00

     total cpu time spent up to now is     1783.5 secs

     total energy              =   -1383.70583750 Ry
     estimated scf accuracy    <       0.00000003 Ry

     iteration #  9     ecut=    60.00 Ry     beta= 0.20
     Davidson diagonalization with overlap
     ethr =  2.04E-11,  avg # of iterations =  3.7

     negative rho (up, down):  2.199E-04 0.000E+00

     total cpu time spent up to now is     1806.6 secs

     total energy              =   -1383.70583750 Ry
     estimated scf accuracy    <          9.3E-09 Ry

     iteration # 10     ecut=    60.00 Ry     beta= 0.20
     Davidson diagonalization with overlap
     ethr =  5.63E-12,  avg # of iterations =  2.7

     negative rho (up, down):  2.199E-04 0.000E+00

     total cpu time spent up to now is     1829.4 secs

     total energy              =   -1383.70583751 Ry
     estimated scf accuracy    <          8.9E-10 Ry

     iteration # 11     ecut=    60.00 Ry     beta= 0.20
     Davidson diagonalization with overlap
     ethr =  5.37E-13,  avg # of iterations =  4.1

     negative rho (up, down):  2.199E-04 0.000E+00

     total cpu time spent up to now is     1851.9 secs

     End of self-consistent calculation

          k = 0.0000 0.0000 0.0000 ( 17133 PWs)   bands (ev):

   -50.1195 -50.1194 -50.0643 -50.0253 -49.9839 -49.9750 -49.8422 -49.8422
   -49.3910 -49.3909 -26.6988 -26.6476 -26.5522 -26.4089 -26.2974 -26.2385
   -26.1834 -26.1834 -26.1834 -26.1834 -26.1621 -26.1179 -26.1179 -26.0953
   -26.0934 -26.0934 -26.0618 -26.0618 -26.0586 -26.0586 -25.9106 -25.9106
   -25.9106 -25.9106 -25.7407 -25.7406 -25.4177 -25.4177 -25.4177 -25.4177
    -9.2713  -9.1008  -8.8330  -8.5583  -8.2642  -7.8633  -7.4495  -7.1385
    -6.9329  -0.1918   0.1397   0.6321   1.2073   1.9296   2.3505   2.3505
     2.5145   2.5145   2.7688   2.7688   2.8378   3.0081   3.0081   3.3208
     3.3208   3.7791   3.8611   3.8611   4.5025   4.5025   4.6216   5.0619
     5.0619   5.3531   5.5176   5.5176   6.9788   7.0420   7.2356   7.2356
     7.3267   7.4260   7.4260   7.5449   7.6885   7.6885   7.8229   7.9545
     7.9545   8.1179   8.2204   8.2204   8.4554   8.4871   8.4871   8.5823
     8.5823   8.8478   8.8672   8.8672   8.9958   8.9958   9.2630   9.3152
     9.3152   9.4307   9.4307   9.6259   9.6259   9.6332   9.6332   9.6368
     9.9154  10.0777  10.1431  10.1431  10.9035  10.9035  11.6552  11.6552

     occupation numbers 
     1.0000   1.0000   1.0000   1.0000   1.0000   1.0000   1.0000   1.0000
     1.0000   1.0000   1.0000   1.0000   1.0000   1.0000   1.0000   1.0000
     1.0000   1.0000   1.0000   1.0000   1.0000   1.0000   1.0000   1.0000
     1.0000   1.0000   1.0000   1.0000   1.0000   1.0000   1.0000   1.0000
     1.0000   1.0000   1.0000   1.0000   1.0000   1.0000   1.0000   1.0000
     1.0000   1.0000   1.0000   1.0000   1.0000   1.0000   1.0000   1.0000
     1.0000   1.0000   1.0000   1.0000   1.0000   1.0000   1.0000   1.0000
     1.0000   1.0000   1.0000   1.0000   1.0000   1.0000   1.0000   1.0000
     1.0000   1.0000   1.0000   1.0000   1.0000   1.0000   1.0000   1.0000
     1.0000   1.0000   1.0000   1.0000   1.0000   1.0000   1.0000   1.0000
     1.0002   1.0057   1.0057   1.0602   0.9167   0.9167   0.2483   0.0132
     0.0132   0.0000   0.0000   0.0000   0.0000   0.0000   0.0000   0.0000
     0.0000   0.0000   0.0000   0.0000   0.0000   0.0000   0.0000   0.0000
     0.0000   0.0000   0.0000   0.0000   0.0000   0.0000   0.0000   0.0000
     0.0000   0.0000   0.0000   0.0000   0.0000   0.0000   0.0000   0.0000

          k = 0.0000 0.0962 0.0000 ( 17192 PWs)   bands (ev):

   -50.1149 -50.1147 -50.0591 -50.0210 -49.9803 -49.9718 -49.8379 -49.8379
   -49.3870 -49.3870 -26.6831 -26.6349 -26.5442 -26.4077 -26.3029 -26.2464
   -26.2076 -26.2064 -26.1913 -26.1913 -26.1720 -26.1468 -26.1285 -26.1163
   -26.1012 -26.1002 -26.0879 -26.0810 -26.0669 -26.0623 -25.9446 -25.9446
   -25.9177 -25.9177 -25.7359 -25.7359 -25.4472 -25.4472 -25.4241 -25.4241
    -9.1539  -8.9917  -8.7367  -8.4797  -8.2071  -7.8305  -7.4446  -7.1617
    -6.9786  -0.0437   0.2606   0.7080   1.2216   1.8460   2.3484   2.3998
     2.5003   2.5411   2.5575   2.7672   2.8011   2.9353   3.0254   3.2980
     3.3191   3.4167   3.8289   3.9859   4.0616   4.4164   4.5570   4.6536
     4.8925   4.9647   5.1553   5.2358   6.9180   6.9737   7.0879   7.2697
     7.3847   7.4985   7.5665   7.5781   7.7756   7.8358   7.8442   8.0213
     8.0894   8.1285   8.2824   8.3234   8.4534   8.5436   8.6469   8.6628
     8.7750   8.9327   8.9890   9.0254   9.0573   9.0740   9.3048   9.3672
     9.3990   9.4251   9.4949   9.5919   9.6718   9.6972   9.7978   9.8266
    10.0233  10.1210  10.2123  10.2931  10.8161  10.9490  11.4945  11.6787

     occupation numbers 
     1.0000   1.0000   1.0000   1.0000   1.0000   1.0000   1.0000   1.0000
     1.0000   1.0000   1.0000   1.0000   1.0000   1.0000   1.0000   1.0000
     1.0000   1.0000   1.0000   1.0000   1.0000   1.0000   1.0000   1.0000
     1.0000   1.0000   1.0000   1.0000   1.0000   1.0000   1.0000   1.0000
     1.0000   1.0000   1.0000   1.0000   1.0000   1.0000   1.0000   1.0000
     1.0000   1.0000   1.0000   1.0000   1.0000   1.0000   1.0000   1.0000
     1.0000   1.0000   1.0000   1.0000   1.0000   1.0000   1.0000   1.0000
     1.0000   1.0000   1.0000   1.0000   1.0000   1.0000   1.0000   1.0000
     1.0000   1.0000   1.0000   1.0000   1.0000   1.0000   1.0000   1.0000
     1.0000   1.0000   1.0000   1.0000   1.0000   1.0000   1.0000   1.0000
     1.0017   1.0301   1.0738   1.0794   0.4707   0.2011   0.1737   0.0015
     0.0001   0.0000   0.0000   0.0000   0.0000   0.0000   0.0000   0.0000
     0.0000   0.0000   0.0000   0.0000   0.0000   0.0000   0.0000   0.0000
     0.0000   0.0000   0.0000   0.0000   0.0000   0.0000   0.0000   0.0000
     0.0000   0.0000   0.0000   0.0000   0.0000   0.0000   0.0000   0.0000

          k = 0.0000 0.1925 0.0000 ( 17226 PWs)   bands (ev):

   -50.1021 -50.1020 -50.0446 -50.0093 -49.9704 -49.9633 -49.8262 -49.8262
   -49.3762 -49.3762 -26.6391 -26.6006 -26.5256 -26.4177 -26.3530 -26.3125
   -26.2585 -26.2292 -26.2219 -26.2129 -26.2128 -26.2110 -26.1650 -26.1552
   -26.1513 -26.1374 -26.1194 -26.0998 -26.0815 -26.0731 -26.0277 -26.0271
   -25.9368 -25.9368 -25.7278 -25.7278 -25.5265 -25.5265 -25.4416 -25.4416
    -8.8256  -8.6882  -8.4709  -8.2657  -8.0545  -7.7459  -7.4348  -7.2239
    -7.0972   0.3639   0.5888   0.9076   1.2561   1.6624   2.0552   2.3383
     2.3630   2.5161   2.5437   2.6316   2.6553   2.8692   2.9869   3.0535
     3.0989   3.2977   3.4388   3.6252   3.7321   3.7902   4.1359   4.2062
     4.3500   4.5506   4.6724   4.7701   6.4512   6.6963   7.0131   7.0998
     7.1632   7.4776   7.7423   7.8458   7.9092   7.9877   8.1540   8.2053
     8.2736   8.3888   8.5277   8.5785   8.5995   8.7065   8.8747   8.8767
     8.9650   9.1156   9.1901   9.2235   9.2959   9.3546   9.4674   9.4983
     9.6752   9.6805   9.7847   9.8408   9.8693   9.9060   9.9771  10.0111
    10.2303  10.4006  10.5196  10.7788  10.9573  11.0593  11.2999  11.7292

     occupation numbers 
     1.0000   1.0000   1.0000   1.0000   1.0000   1.0000   1.0000   1.0000
     1.0000   1.0000   1.0000   1.0000   1.0000   1.0000   1.0000   1.0000
     1.0000   1.0000   1.0000   1.0000   1.0000   1.0000   1.0000   1.0000
     1.0000   1.0000   1.0000   1.0000   1.0000   1.0000   1.0000   1.0000
     1.0000   1.0000   1.0000   1.0000   1.0000   1.0000   1.0000   1.0000
     1.0000   1.0000   1.0000   1.0000   1.0000   1.0000   1.0000   1.0000
     1.0000   1.0000   1.0000   1.0000   1.0000   1.0000   1.0000   1.0000
     1.0000   1.0000   1.0000   1.0000   1.0000   1.0000   1.0000   1.0000
     1.0000   1.0000   1.0000   1.0000   1.0000   1.0000   1.0000   1.0000
     1.0000   1.0000   1.0000   1.0000   1.0000   1.0000   1.0000   1.0000
     1.0000   1.0200   0.6535   0.1688   0.0442   0.0047   0.0000   0.0000
     0.0000   0.0000   0.0000   0.0000   0.0000   0.0000   0.0000   0.0000
     0.0000   0.0000   0.0000   0.0000   0.0000   0.0000   0.0000   0.0000
     0.0000   0.0000   0.0000   0.0000   0.0000   0.0000   0.0000   0.0000
     0.0000   0.0000   0.0000   0.0000   0.0000   0.0000   0.0000   0.0000

          k = 0.0000 0.2887 0.0000 ( 17282 PWs)   bands (ev):

   -50.0846 -50.0846 -50.0241 -49.9934 -49.9570 -49.9520 -49.8100 -49.8100
   -49.3615 -49.3615 -26.5796 -26.5592 -26.5188 -26.4784 -26.4555 -26.4168
   -26.3558 -26.3158 -26.2663 -26.2423 -26.2420 -26.2305 -26.2169 -26.2102
   -26.1889 -26.1702 -26.1456 -26.1311 -26.1054 -26.1021 -26.0947 -26.0895
   -25.9628 -25.9628 -25.7222 -25.7222 -25.6308 -25.6308 -25.4654 -25.4654
    -8.3642  -8.2676  -8.1087  -7.9811  -7.8578  -7.6404  -7.4216  -7.2901
    -7.2247   0.8286   0.9745   1.1472   1.2703   1.4564   1.7049   1.8769
     2.0036   2.1450   2.2749   2.4213   2.5977   2.6428   2.7141   2.8954
     2.9252   3.0407   3.1932   3.2382   3.4074   3.5898   3.6088   3.9700
     4.0097   4.2950   4.3428   4.4715   5.8543   6.1851   6.6361   7.1081
     7.2212   7.2243   7.6446   8.2061   8.2517   8.3765   8.4195   8.5334
     8.5701   8.7348   8.7648   8.7901   8.9499   8.9864   9.0470   9.0669
     9.1644   9.3312   9.4035   9.5105   9.6213   9.7066   9.7320   9.7398
     9.7893   9.8695   9.8831   9.9143   9.9934  10.0842  10.1583  10.6107
    10.7355  10.9446  11.1674  11.2213  11.2889  11.4293  11.5514  11.7383

     occupation numbers 
     1.0000   1.0000   1.0000   1.0000   1.0000   1.0000   1.0000   1.0000
     1.0000   1.0000   1.0000   1.0000   1.0000   1.0000   1.0000   1.0000
     1.0000   1.0000   1.0000   1.0000   1.0000   1.0000   1.0000   1.0000
     1.0000   1.0000   1.0000   1.0000   1.0000   1.0000   1.0000   1.0000
     1.0000   1.0000   1.0000   1.0000   1.0000   1.0000   1.0000   1.0000
     1.0000   1.0000   1.0000   1.0000   1.0000   1.0000   1.0000   1.0000
     1.0000   1.0000   1.0000   1.0000   1.0000   1.0000   1.0000   1.0000
     1.0000   1.0000   1.0000   1.0000   1.0000   1.0000   1.0000   1.0000
     1.0000   1.0000   1.0000   1.0000   1.0000   1.0000   1.0000   1.0000
     1.0000   1.0000   1.0000   1.0000   1.0000   1.0000   1.0000   1.0000
     1.0000   1.0000   1.0438   0.0000   0.0000   0.0000   0.0000   0.0000
     0.0000   0.0000   0.0000   0.0000   0.0000   0.0000   0.0000   0.0000
     0.0000   0.0000   0.0000   0.0000   0.0000   0.0000   0.0000   0.0000
     0.0000   0.0000   0.0000   0.0000   0.0000   0.0000   0.0000   0.0000
     0.0000   0.0000   0.0000   0.0000   0.0000   0.0000   0.0000   0.0000

          k = 0.0000 0.3849 0.0000 ( 17380 PWs)   bands (ev):

   -50.0671 -50.0671 -50.0025 -49.9778 -49.9438 -49.9411 -49.7939 -49.7939
   -49.3467 -49.3466 -26.6021 -26.5917 -26.5548 -26.5303 -26.5202 -26.4756
   -26.4606 -26.3804 -26.3214 -26.2891 -26.2717 -26.2709 -26.2709 -26.2343
   -26.2207 -26.1859 -26.1715 -26.1539 -26.1304 -26.1232 -26.1141 -26.1071
   -25.9886 -25.9886 -25.7381 -25.7381 -25.7113 -25.7113 -25.4890 -25.4890
    -7.9589  -7.9060  -7.8002  -7.7369  -7.6783  -7.5186  -7.3504  -7.2516
    -7.2165   0.6145   0.7876   1.0346   1.2476   1.4044   1.4163   1.5138
     1.6553   1.9813   2.0238   2.3225   2.5320   2.5523   2.6480   2.7424
     2.8232   2.8298   2.9282   2.9796   3.1793   3.3053   3.5462   3.7652
     3.9424   4.2068   4.2249   4.4000   5.3328   5.7564   6.2768   6.8029
     7.3753   7.4863   7.5181   8.0744   8.6519   8.8166   8.9041   8.9422
     8.9551   9.0443   9.0826   9.1807   9.2044   9.2815   9.4096   9.4994
     9.5175   9.5243   9.5516   9.6753   9.7010   9.8156   9.8829   9.9594
    10.0146  10.0178  10.0740  10.1216  10.1446  10.1581  10.3684  10.7291
    11.2240  11.2306  11.3904  11.5930  11.6630  11.7207  11.7875  11.8289

     occupation numbers 
     1.0000   1.0000   1.0000   1.0000   1.0000   1.0000   1.0000   1.0000
     1.0000   1.0000   1.0000   1.0000   1.0000   1.0000   1.0000   1.0000
     1.0000   1.0000   1.0000   1.0000   1.0000   1.0000   1.0000   1.0000
     1.0000   1.0000   1.0000   1.0000   1.0000   1.0000   1.0000   1.0000
     1.0000   1.0000   1.0000   1.0000   1.0000   1.0000   1.0000   1.0000
     1.0000   1.0000   1.0000   1.0000   1.0000   1.0000   1.0000   1.0000
     1.0000   1.0000   1.0000   1.0000   1.0000   1.0000   1.0000   1.0000
     1.0000   1.0000   1.0000   1.0000   1.0000   1.0000   1.0000   1.0000
     1.0000   1.0000   1.0000   1.0000   1.0000   1.0000   1.0000   1.0000
     1.0000   1.0000   1.0000   1.0000   1.0000   1.0000   1.0000   1.0000
     1.0012   1.0239   1.0419   0.0002   0.0000   0.0000   0.0000   0.0000
     0.0000   0.0000   0.0000   0.0000   0.0000   0.0000   0.0000   0.0000
     0.0000   0.0000   0.0000   0.0000   0.0000   0.0000   0.0000   0.0000
     0.0000   0.0000   0.0000   0.0000   0.0000   0.0000   0.0000   0.0000
     0.0000   0.0000   0.0000   0.0000   0.0000   0.0000   0.0000   0.0000

          k = 0.0000 0.4811 0.0000 ( 17374 PWs)   bands (ev):

   -50.0542 -50.0542 -49.9854 -49.9670 -49.9344 -49.9333 -49.7820 -49.7820
   -49.3358 -49.3358 -26.6848 -26.6732 -26.6229 -26.5745 -26.5569 -26.5435
   -26.4373 -26.4184 -26.3526 -26.3160 -26.2931 -26.2920 -26.2817 -26.2525
   -26.2432 -26.1972 -26.1903 -26.1586 -26.1388 -26.1360 -26.1241 -26.1205
   -26.0074 -26.0074 -25.8015 -25.8015 -25.7146 -25.7145 -25.5063 -25.5063
    -7.8786  -7.8087  -7.6881  -7.6123  -7.5270  -7.3366  -7.1503  -7.0435
    -7.0022   0.0364   0.2437   0.5501   0.8483   1.1422   1.4505   1.7091
     1.8973   1.9983   2.2774   2.3686   2.3996   2.4353   2.4908   2.5312
     2.5478   2.7351   2.7399   2.9132   3.1418   3.1717   3.5361   3.6742
     3.9574   4.1744   4.2594   4.4496   4.9833   5.5025   6.0606   6.6122
     7.2369   7.7995   7.8113   7.9478   8.5888   9.0565   9.2882   9.3169
     9.3426   9.3751   9.4188   9.4583   9.5907   9.6112   9.6674   9.6709
     9.7497   9.8181   9.8733   9.9237   9.9327   9.9534  10.0420  10.0609
    10.1415  10.1452  10.1753  10.2028  10.2050  10.2790  10.4359  10.7169
    11.1858  11.4421  11.4901  11.5936  11.7376  11.8039  12.0889  12.2773

     occupation numbers 
     1.0000   1.0000   1.0000   1.0000   1.0000   1.0000   1.0000   1.0000
     1.0000   1.0000   1.0000   1.0000   1.0000   1.0000   1.0000   1.0000
     1.0000   1.0000   1.0000   1.0000   1.0000   1.0000   1.0000   1.0000
     1.0000   1.0000   1.0000   1.0000   1.0000   1.0000   1.0000   1.0000
     1.0000   1.0000   1.0000   1.0000   1.0000   1.0000   1.0000   1.0000
     1.0000   1.0000   1.0000   1.0000   1.0000   1.0000   1.0000   1.0000
     1.0000   1.0000   1.0000   1.0000   1.0000   1.0000   1.0000   1.0000
     1.0000   1.0000   1.0000   1.0000   1.0000   1.0000   1.0000   1.0000
     1.0000   1.0000   1.0000   1.0000   1.0000   1.0000   1.0000   1.0000
     1.0000   1.0000   1.0000   1.0000   1.0000   1.0000   1.0000   1.0000
     1.0000   0.3500   0.2962   0.0160   0.0000   0.0000   0.0000   0.0000
     0.0000   0.0000   0.0000   0.0000   0.0000   0.0000   0.0000   0.0000
     0.0000   0.0000   0.0000   0.0000   0.0000   0.0000   0.0000   0.0000
     0.0000   0.0000   0.0000   0.0000   0.0000   0.0000   0.0000   0.0000
     0.0000   0.0000   0.0000   0.0000   0.0000   0.0000   0.0000   0.0000

          k = 0.0000-0.5774 0.0000 ( 17314 PWs)   bands (ev):

   -50.0495 -50.0495 -49.9784 -49.9636 -49.9311 -49.9304 -49.7776 -49.7776
   -49.3318 -49.3318 -26.7161 -26.7040 -26.6530 -26.5932 -26.5809 -26.5670
   -26.4450 -26.4390 -26.3221 -26.3066 -26.3010 -26.2997 -26.2832 -26.2794
   -26.2513 -26.2038 -26.1972 -26.1609 -26.1446 -26.1369 -26.1270 -26.1255
   -26.0143 -26.0143 -25.8244 -25.8244 -25.7147 -25.7147 -25.5126 -25.5126
    -7.8926  -7.8100  -7.6742  -7.5805  -7.4715  -7.2534  -7.0431  -6.9216
    -6.8681  -0.2246   0.0063   0.3552   0.7208   1.1003   1.5096   1.7990
     1.9234   1.9671   2.2988   2.3048   2.3412   2.3648   2.4649   2.4797
     2.5452   2.6936   2.7353   2.8846   3.1271   3.1442   3.5355   3.6490
     3.9713   4.1696   4.2854   4.4851   4.8606   5.4259   5.9924   6.5500
     7.1815   7.8776   7.9597   7.9684   8.5571   9.0804   9.4400   9.4818
     9.4921   9.5202   9.5384   9.6286   9.6830   9.6833   9.7090   9.7682
     9.8667   9.8939  10.0344  10.0426  10.0671  10.0947  10.1065  10.1108
    10.1670  10.1742  10.1874  10.2790  10.2822  10.4618  10.4881  10.6152
    11.1221  11.4188  11.5086  11.6812  11.6907  11.9637  12.2444  12.3101

     occupation numbers 
     1.0000   1.0000   1.0000   1.0000   1.0000   1.0000   1.0000   1.0000
     1.0000   1.0000   1.0000   1.0000   1.0000   1.0000   1.0000   1.0000
     1.0000   1.0000   1.0000   1.0000   1.0000   1.0000   1.0000   1.0000
     1.0000   1.0000   1.0000   1.0000   1.0000   1.0000   1.0000   1.0000
     1.0000   1.0000   1.0000   1.0000   1.0000   1.0000   1.0000   1.0000
     1.0000   1.0000   1.0000   1.0000   1.0000   1.0000   1.0000   1.0000
     1.0000   1.0000   1.0000   1.0000   1.0000   1.0000   1.0000   1.0000
     1.0000   1.0000   1.0000   1.0000   1.0000   1.0000   1.0000   1.0000
     1.0000   1.0000   1.0000   1.0000   1.0000   1.0000   1.0000   1.0000
     1.0000   1.0000   1.0000   1.0000   1.0000   1.0000   1.0000   1.0000
     1.0000   0.0906   0.0113   0.0087   0.0000   0.0000   0.0000   0.0000
     0.0000   0.0000   0.0000   0.0000   0.0000   0.0000   0.0000   0.0000
     0.0000   0.0000   0.0000   0.0000   0.0000   0.0000   0.0000   0.0000
     0.0000   0.0000   0.0000   0.0000   0.0000   0.0000   0.0000   0.0000
     0.0000   0.0000   0.0000   0.0000   0.0000   0.0000   0.0000   0.0000

          k = 0.0833 0.1443 0.0000 ( 17259 PWs)   bands (ev):

   -50.1062 -50.1060 -50.0492 -50.0131 -49.9735 -49.9660 -49.8299 -49.8299
   -49.3797 -49.3797 -26.6532 -26.6113 -26.5307 -26.4114 -26.3308 -26.2865
   -26.2379 -26.2265 -26.2146 -26.2077 -26.2003 -26.1906 -26.1580 -26.1455
   -26.1299 -26.1278 -26.1048 -26.0976 -26.0783 -26.0749 -26.0010 -26.0007
   -25.9329 -25.9329 -25.7297 -25.7297 -25.5000 -25.5000 -25.4377 -25.4377
    -8.9307  -8.7850  -8.5552  -8.3331  -8.1021  -7.7718  -7.4376  -7.2050
    -7.0616   0.2368   0.4868   0.8466   1.2468   1.7137   2.1711   2.3580
     2.4425   2.5312   2.5777   2.6008   2.7877   2.8949   2.9391   3.1074
     3.2426   3.3225   3.6001   3.7337   3.8200   4.0870   4.1770   4.3123
     4.5475   4.5661   4.6093   4.8360   6.8981   6.9397   7.0479   7.1692
     7.2310   7.4822   7.5015   7.6290   7.7670   8.0115   8.0164   8.1127
     8.2840   8.2955   8.3660   8.5444   8.6358   8.6432   8.8371   8.9276
     8.9308   9.0562   9.1100   9.2225   9.2257   9.3140   9.4215   9.5279
     9.5565   9.5723   9.6043   9.6735   9.7263   9.8482   9.9218  10.0050
    10.1347  10.2158  10.5354  10.6241  10.8732  10.9954  11.4516  11.5523

     occupation numbers 
     1.0000   1.0000   1.0000   1.0000   1.0000   1.0000   1.0000   1.0000
     1.0000   1.0000   1.0000   1.0000   1.0000   1.0000   1.0000   1.0000
     1.0000   1.0000   1.0000   1.0000   1.0000   1.0000   1.0000   1.0000
     1.0000   1.0000   1.0000   1.0000   1.0000   1.0000   1.0000   1.0000
     1.0000   1.0000   1.0000   1.0000   1.0000   1.0000   1.0000   1.0000
     1.0000   1.0000   1.0000   1.0000   1.0000   1.0000   1.0000   1.0000
     1.0000   1.0000   1.0000   1.0000   1.0000   1.0000   1.0000   1.0000
     1.0000   1.0000   1.0000   1.0000   1.0000   1.0000   1.0000   1.0000
     1.0000   1.0000   1.0000   1.0000   1.0000   1.0000   1.0000   1.0000
     1.0000   1.0000   1.0000   1.0000   1.0000   1.0000   1.0000   1.0000
     1.0000   1.0220   1.0318   1.0667   0.5172   0.0021   0.0018   0.0000
     0.0000   0.0000   0.0000   0.0000   0.0000   0.0000   0.0000   0.0000
     0.0000   0.0000   0.0000   0.0000   0.0000   0.0000   0.0000   0.0000
     0.0000   0.0000   0.0000   0.0000   0.0000   0.0000   0.0000   0.0000
     0.0000   0.0000   0.0000   0.0000   0.0000   0.0000   0.0000   0.0000

          k = 0.0833 0.2406 0.0000 ( 17323 PWs)   bands (ev):

   -50.0910 -50.0910 -50.0317 -49.9992 -49.9619 -49.9561 -49.8160 -49.8160
   -49.3669 -49.3669 -26.6002 -26.5726 -26.5154 -26.4445 -26.4120 -26.3744
   -26.3169 -26.2806 -26.2589 -26.2391 -26.2262 -26.2228 -26.2056 -26.1895
   -26.1675 -26.1531 -26.1356 -26.1209 -26.0987 -26.0954 -26.0790 -26.0737
   -25.9605 -25.9605 -25.7232 -25.7232 -25.5879 -25.5879 -25.4623 -25.4623
    -8.5312  -8.4184  -8.2371  -8.0808  -7.9260  -7.6774  -7.4295  -7.2753
    -7.1925   0.7224   0.8661   1.0597   1.2672   1.5406   1.8181   2.0133
     2.2140   2.3828   2.4068   2.6194   2.7115   2.7429   2.7791   2.9170
     3.0435   3.0824   3.2322   3.3565   3.5572   3.6506   3.7648   3.9386
     3.9876   4.1558   4.2108   4.3272   6.5015   6.6948   7.0048   7.1319
     7.1656   7.4312   7.5325   7.8032   7.8705   8.0097   8.2152   8.4296
     8.5185   8.6011   8.6671   8.7633   8.8445   8.8797   9.0172   9.0970
     9.2568   9.3597   9.3876   9.4632   9.5077   9.5759   9.6637   9.7402
     9.7519   9.7647   9.8550   9.9018   9.9896   9.9925  10.0449  10.2445
    10.3469  10.5678  10.8547  11.1568  11.2287  11.3887  11.5196  11.6565

     occupation numbers 
     1.0000   1.0000   1.0000   1.0000   1.0000   1.0000   1.0000   1.0000
     1.0000   1.0000   1.0000   1.0000   1.0000   1.0000   1.0000   1.0000
     1.0000   1.0000   1.0000   1.0000   1.0000   1.0000   1.0000   1.0000
     1.0000   1.0000   1.0000   1.0000   1.0000   1.0000   1.0000   1.0000
     1.0000   1.0000   1.0000   1.0000   1.0000   1.0000   1.0000   1.0000
     1.0000   1.0000   1.0000   1.0000   1.0000   1.0000   1.0000   1.0000
     1.0000   1.0000   1.0000   1.0000   1.0000   1.0000   1.0000   1.0000
     1.0000   1.0000   1.0000   1.0000   1.0000   1.0000   1.0000   1.0000
     1.0000   1.0000   1.0000   1.0000   1.0000   1.0000   1.0000   1.0000
     1.0000   1.0000   1.0000   1.0000   1.0000   1.0000   1.0000   1.0000
     1.0000   1.0066   1.0516   0.3327   0.1051   0.0023   0.0000   0.0000
     0.0000   0.0000   0.0000   0.0000   0.0000   0.0000   0.0000   0.0000
     0.0000   0.0000   0.0000   0.0000   0.0000   0.0000   0.0000   0.0000
     0.0000   0.0000   0.0000   0.0000   0.0000   0.0000   0.0000   0.0000
     0.0000   0.0000   0.0000   0.0000   0.0000   0.0000   0.0000   0.0000

          k = 0.0833 0.3368 0.0000 ( 17369 PWs)   bands (ev):

   -50.0735 -50.0735 -50.0106 -49.9834 -49.9486 -49.9450 -49.7998 -49.7998
   -49.3521 -49.3521 -26.5599 -26.5511 -26.5363 -26.5094 -26.4929 -26.4704
   -26.4209 -26.3568 -26.3006 -26.2762 -26.2758 -26.2467 -26.2380 -26.2308
   -26.2095 -26.1827 -26.1697 -26.1464 -26.1354 -26.1237 -26.1143 -26.0976
   -25.9920 -25.9919 -25.7206 -25.7206 -25.6836 -25.6836 -25.4906 -25.4906
    -8.0683  -8.0028  -7.8840  -7.8071  -7.7378  -7.5742  -7.4069  -7.3119
    -7.2786   0.9129   1.0542   1.2500   1.3657   1.4102   1.4736   1.6255
     1.7417   1.9549   1.9641   2.3805   2.6046   2.6563   2.7166   2.8475
     2.9022   2.9366   3.0252   3.1225   3.2177   3.3197   3.4596   3.6924
     3.7266   3.8885   3.9339   4.0866   6.0254   6.2767   6.6831   7.1380
     7.3255   7.3333   7.6813   8.0208   8.2248   8.2657   8.4814   8.5887
     8.8260   8.8819   9.0819   9.1654   9.1892   9.2470   9.2963   9.3601
     9.4118   9.4744   9.5231   9.6880   9.6953   9.7726   9.8819   9.9480
     9.9802  10.0121  10.0523  10.0770  10.1252  10.1537  10.3145  10.5905
    10.9683  10.9833  11.1648  11.3758  11.3984  11.7355  11.8775  11.9056

     occupation numbers 
     1.0000   1.0000   1.0000   1.0000   1.0000   1.0000   1.0000   1.0000
     1.0000   1.0000   1.0000   1.0000   1.0000   1.0000   1.0000   1.0000
     1.0000   1.0000   1.0000   1.0000   1.0000   1.0000   1.0000   1.0000
     1.0000   1.0000   1.0000   1.0000   1.0000   1.0000   1.0000   1.0000
     1.0000   1.0000   1.0000   1.0000   1.0000   1.0000   1.0000   1.0000
     1.0000   1.0000   1.0000   1.0000   1.0000   1.0000   1.0000   1.0000
     1.0000   1.0000   1.0000   1.0000   1.0000   1.0000   1.0000   1.0000
     1.0000   1.0000   1.0000   1.0000   1.0000   1.0000   1.0000   1.0000
     1.0000   1.0000   1.0000   1.0000   1.0000   1.0000   1.0000   1.0000
     1.0000   1.0000   1.0000   1.0000   1.0000   1.0000   1.0000   1.0000
     1.0002   1.0003   0.9440   0.0015   0.0000   0.0000   0.0000   0.0000
     0.0000   0.0000   0.0000   0.0000   0.0000   0.0000   0.0000   0.0000
     0.0000   0.0000   0.0000   0.0000   0.0000   0.0000   0.0000   0.0000
     0.0000   0.0000   0.0000   0.0000   0.0000   0.0000   0.0000   0.0000
     0.0000   0.0000   0.0000   0.0000   0.0000   0.0000   0.0000   0.0000

          k = 0.0833 0.4330 0.0000 ( 17416 PWs)   bands (ev):

   -50.0583 -50.0583 -49.9910 -49.9703 -49.9374 -49.9357 -49.7857 -49.7857
   -49.3392 -49.3392 -26.6400 -26.6298 -26.5818 -26.5500 -26.5292 -26.5123
   -26.4451 -26.3973 -26.3451 -26.3192 -26.3035 -26.2891 -26.2745 -26.2484
   -26.2363 -26.2123 -26.1761 -26.1654 -26.1459 -26.1365 -26.1291 -26.1147
   -26.0185 -26.0185 -25.7685 -25.7685 -25.7136 -25.7136 -25.5148 -25.5148
    -7.8247  -7.7756  -7.6778  -7.6278  -7.5755  -7.4225  -7.2688  -7.1792
    -7.1552   0.4076   0.5833   0.8363   1.0510   1.2282   1.4110   1.6186
     1.8288   2.0345   2.1968   2.3633   2.4208   2.5192   2.5985   2.6648
     2.7143   2.7658   2.8049   2.8898   3.0376   3.1838   3.3296   3.5858
     3.6507   3.7738   3.8296   4.0670   5.6979   5.9799   6.4273   6.9176
     7.4798   7.6288   7.6473   8.1339   8.6254   8.6740   8.7987   8.9809
     9.0569   9.1986   9.2684   9.4203   9.4395   9.5101   9.5901   9.6765
     9.7125   9.7577   9.8068   9.8679   9.9058   9.9389  10.0134  10.1011
    10.1305  10.1607  10.1652  10.1750  10.2054  10.2718  10.4677  10.7340
    11.0693  11.3296  11.5006  11.6241  11.6476  11.7493  11.9333  12.0714

     occupation numbers 
     1.0000   1.0000   1.0000   1.0000   1.0000   1.0000   1.0000   1.0000
     1.0000   1.0000   1.0000   1.0000   1.0000   1.0000   1.0000   1.0000
     1.0000   1.0000   1.0000   1.0000   1.0000   1.0000   1.0000   1.0000
     1.0000   1.0000   1.0000   1.0000   1.0000   1.0000   1.0000   1.0000
     1.0000   1.0000   1.0000   1.0000   1.0000   1.0000   1.0000   1.0000
     1.0000   1.0000   1.0000   1.0000   1.0000   1.0000   1.0000   1.0000
     1.0000   1.0000   1.0000   1.0000   1.0000   1.0000   1.0000   1.0000
     1.0000   1.0000   1.0000   1.0000   1.0000   1.0000   1.0000   1.0000
     1.0000   1.0000   1.0000   1.0000   1.0000   1.0000   1.0000   1.0000
     1.0000   1.0000   1.0000   1.0000   1.0000   1.0000   1.0000   1.0000
     1.0210   1.0669   1.0388   0.0000   0.0000   0.0000   0.0000   0.0000
     0.0000   0.0000   0.0000   0.0000   0.0000   0.0000   0.0000   0.0000
     0.0000   0.0000   0.0000   0.0000   0.0000   0.0000   0.0000   0.0000
     0.0000   0.0000   0.0000   0.0000   0.0000   0.0000   0.0000   0.0000
     0.0000   0.0000   0.0000   0.0000   0.0000   0.0000   0.0000   0.0000

          k = 0.0833-0.6255 0.0000 ( 17393 PWs)   bands (ev):

   -50.0495 -50.0495 -49.9785 -49.9636 -49.9311 -49.9304 -49.7776 -49.7776
   -49.3318 -49.3318 -26.6964 -26.6849 -26.6346 -26.5786 -26.5655 -26.5537
   -26.4347 -26.4259 -26.3379 -26.3222 -26.3179 -26.3032 -26.2852 -26.2737
   -26.2524 -26.2276 -26.1849 -26.1742 -26.1498 -26.1435 -26.1312 -26.1268
   -26.0336 -26.0335 -25.8113 -25.8113 -25.7137 -25.7137 -25.5288 -25.5288
    -7.8325  -7.7600  -7.6377  -7.5608  -7.4701  -7.2735  -7.0855  -6.9798
    -6.9402  -0.0462   0.1649   0.4832   0.8085   1.1425   1.5051   1.7822
     1.9296   1.9854   2.3157   2.3391   2.4034   2.4114   2.4810   2.5122
     2.5633   2.6711   2.7369   2.8154   2.9988   3.1249   3.3130   3.5284
     3.6642   3.7313   3.7954   4.1038   5.5500   5.8426   6.3037   6.8044
     7.3923   7.8851   7.8878   8.0463   8.6436   9.0602   9.2255   9.3023
     9.3396   9.4000   9.4751   9.5209   9.5681   9.6647   9.7733   9.8106
     9.8984   9.9395   9.9774  10.0088  10.0273  10.0776  10.0959  10.1469
    10.1612  10.1740  10.2194  10.2272  10.3123  10.4193  10.5281  10.7262
    11.0542  11.4596  11.4866  11.5612  11.7575  11.9146  12.1028  12.3051

     occupation numbers 
     1.0000   1.0000   1.0000   1.0000   1.0000   1.0000   1.0000   1.0000
     1.0000   1.0000   1.0000   1.0000   1.0000   1.0000   1.0000   1.0000
     1.0000   1.0000   1.0000   1.0000   1.0000   1.0000   1.0000   1.0000
     1.0000   1.0000   1.0000   1.0000   1.0000   1.0000   1.0000   1.0000
     1.0000   1.0000   1.0000   1.0000   1.0000   1.0000   1.0000   1.0000
     1.0000   1.0000   1.0000   1.0000   1.0000   1.0000   1.0000   1.0000
     1.0000   1.0000   1.0000   1.0000   1.0000   1.0000   1.0000   1.0000
     1.0000   1.0000   1.0000   1.0000   1.0000   1.0000   1.0000   1.0000
     1.0000   1.0000   1.0000   1.0000   1.0000   1.0000   1.0000   1.0000
     1.0000   1.0000   1.0000   1.0000   1.0000   1.0000   1.0000   1.0000
     1.0021   0.0770   0.0726   0.0006   0.0000   0.0000   0.0000   0.0000
     0.0000   0.0000   0.0000   0.0000   0.0000   0.0000   0.0000   0.0000
     0.0000   0.0000   0.0000   0.0000   0.0000   0.0000   0.0000   0.0000
     0.0000   0.0000   0.0000   0.0000   0.0000   0.0000   0.0000   0.0000
     0.0000   0.0000   0.0000   0.0000   0.0000   0.0000   0.0000   0.0000

          k = 0.1667 0.2887 0.0000 ( 17381 PWs)   bands (ev):

   -50.0759 -50.0759 -50.0135 -49.9855 -49.9504 -49.9465 -49.8020 -49.8020
   -49.3541 -49.3541 -26.5509 -26.5471 -26.5167 -26.4900 -26.4821 -26.4530
   -26.4080 -26.3418 -26.3049 -26.2773 -26.2746 -26.2419 -26.2223 -26.2204
   -26.1994 -26.1701 -26.1683 -26.1576 -26.1444 -26.1313 -26.1108 -26.0926
   -26.0025 -26.0024 -25.7187 -25.7187 -25.6612 -25.6612 -25.4985 -25.4985
    -8.1126  -8.0400  -7.9139  -7.8301  -7.7546  -7.5887  -7.4249  -7.3357
    -7.3072   1.1756   1.1871   1.2470   1.2584   1.3434   1.5435   1.7376
     1.8921   1.9886   2.0091   2.4452   2.6942   2.7647   2.8186   2.8992
     2.9425   2.9995   3.0400   3.1962   3.2179   3.2889   3.3478   3.3863
     3.5969   3.6934   3.7386   3.7558   6.7936   6.8341   7.0067   7.1064
     7.2461   7.3334   7.6285   7.6553   8.0065   8.1710   8.2592   8.3297
     8.6404   8.8944   9.0506   9.1462   9.1788   9.2046   9.3421   9.3789
     9.4422   9.5175   9.5519   9.6504   9.6968   9.7368   9.8770   9.9514
     9.9816  10.0479  10.0920  10.1065  10.1396  10.3760  10.5243  10.5831
    10.6109  10.6293  10.7754  11.0087  11.2851  11.8484  11.8809  12.0994

     occupation numbers 
     1.0000   1.0000   1.0000   1.0000   1.0000   1.0000   1.0000   1.0000
     1.0000   1.0000   1.0000   1.0000   1.0000   1.0000   1.0000   1.0000
     1.0000   1.0000   1.0000   1.0000   1.0000   1.0000   1.0000   1.0000
     1.0000   1.0000   1.0000   1.0000   1.0000   1.0000   1.0000   1.0000
     1.0000   1.0000   1.0000   1.0000   1.0000   1.0000   1.0000   1.0000
     1.0000   1.0000   1.0000   1.0000   1.0000   1.0000   1.0000   1.0000
     1.0000   1.0000   1.0000   1.0000   1.0000   1.0000   1.0000   1.0000
     1.0000   1.0000   1.0000   1.0000   1.0000   1.0000   1.0000   1.0000
     1.0000   1.0000   1.0000   1.0000   1.0000   1.0000   1.0000   1.0000
     1.0000   1.0000   1.0000   1.0000   1.0000   1.0000   1.0000   1.0000
     1.0000   1.0003   1.0672   1.0216   0.0025   0.0000   0.0000   0.0000
     0.0000   0.0000   0.0000   0.0000   0.0000   0.0000   0.0000   0.0000
     0.0000   0.0000   0.0000   0.0000   0.0000   0.0000   0.0000   0.0000
     0.0000   0.0000   0.0000   0.0000   0.0000   0.0000   0.0000   0.0000
     0.0000   0.0000   0.0000   0.0000   0.0000   0.0000   0.0000   0.0000

          k = 0.1667 0.3849 0.0000 ( 17421 PWs)   bands (ev):

   -50.0607 -50.0607 -49.9942 -49.9723 -49.9391 -49.9371 -49.7879 -49.7879
   -49.3412 -49.3412 -26.5868 -26.5818 -26.5391 -26.5265 -26.5032 -26.4942
   -26.4611 -26.3842 -26.3366 -26.3319 -26.3251 -26.2669 -26.2599 -26.2464
   -26.2322 -26.2207 -26.1945 -26.1766 -26.1687 -26.1401 -26.1263 -26.1112
   -26.0465 -26.0464 -25.7309 -25.7309 -25.7138 -25.7138 -25.5378 -25.5377
    -7.7207  -7.6989  -7.6294  -7.6110  -7.5945  -7.4935  -7.3993  -7.3157
    -7.3132   0.8984   1.0232   1.1933   1.2385   1.2763   1.3488   1.5282
     1.7320   2.0722   2.1427   2.4549   2.5474   2.6214   2.6859   2.7122
     2.7350   2.7941   2.8512   2.9703   3.0112   3.0650   3.1209   3.1329
     3.1767   3.2715   3.4410   3.6426   6.5825   6.6848   7.0074   7.3309
     7.4067   7.5234   7.7566   7.9672   8.0620   8.3633   8.5747   8.6900
     8.7181   9.0157   9.2080   9.3264   9.4868   9.5151   9.5662   9.6094
     9.6545   9.7023   9.7446   9.7910   9.8771  10.0042  10.0680  10.1091
    10.1418  10.1611  10.2407  10.2417  10.4848  10.6033  10.6649  10.8291
    10.9705  11.0564  11.1685  11.3163  11.4685  11.8070  11.9023  12.0147

     occupation numbers 
     1.0000   1.0000   1.0000   1.0000   1.0000   1.0000   1.0000   1.0000
     1.0000   1.0000   1.0000   1.0000   1.0000   1.0000   1.0000   1.0000
     1.0000   1.0000   1.0000   1.0000   1.0000   1.0000   1.0000   1.0000
     1.0000   1.0000   1.0000   1.0000   1.0000   1.0000   1.0000   1.0000
     1.0000   1.0000   1.0000   1.0000   1.0000   1.0000   1.0000   1.0000
     1.0000   1.0000   1.0000   1.0000   1.0000   1.0000   1.0000   1.0000
     1.0000   1.0000   1.0000   1.0000   1.0000   1.0000   1.0000   1.0000
     1.0000   1.0000   1.0000   1.0000   1.0000   1.0000   1.0000   1.0000
     1.0000   1.0000   1.0000   1.0000   1.0000   1.0000   1.0000   1.0000
     1.0000   1.0000   1.0000   1.0000   1.0000   1.0000   1.0000   1.0003
     1.0033   1.0455   0.5742   0.0090   0.0003   0.0000   0.0000   0.0000
     0.0000   0.0000   0.0000   0.0000   0.0000   0.0000   0.0000   0.0000
     0.0000   0.0000   0.0000   0.0000   0.0000   0.0000   0.0000   0.0000
     0.0000   0.0000   0.0000   0.0000   0.0000   0.0000   0.0000   0.0000
     0.0000   0.0000   0.0000   0.0000   0.0000   0.0000   0.0000   0.0000

          k = 0.1667-0.6736 0.0000 ( 17428 PWs)   bands (ev):

   -50.0496 -50.0496 -49.9786 -49.9635 -49.9311 -49.9304 -49.7776 -49.7776
   -49.3318 -49.3318 -26.6459 -26.6370 -26.5892 -26.5479 -26.5362 -26.5215
   -26.4258 -26.4064 -26.3718 -26.3630 -26.3421 -26.2974 -26.2954 -26.2692
   -26.2635 -26.2381 -26.2119 -26.1893 -26.1725 -26.1430 -26.1324 -26.1293
   -26.0774 -26.0772 -25.7780 -25.7780 -25.7127 -25.7127 -25.5673 -25.5673
    -7.6676  -7.6262  -7.5432  -7.5114  -7.4666  -7.3289  -7.2045  -7.1241
    -7.1162   0.4191   0.5748   0.8068   1.0155   1.2176   1.4691   1.7245
     1.9344   2.0613   2.3200   2.3440   2.4254   2.5181   2.5576   2.6345
     2.6599   2.6933   2.7474   2.7549   2.7766   2.8394   2.9238   3.0157
     3.0343   3.0869   3.4072   3.6882   6.4155   6.5459   6.8887   7.3225
     7.6784   7.7197   7.9056   8.4143   8.4455   8.6313   8.8482   8.9518
     9.0487   9.1403   9.2992   9.4315   9.5409   9.5838   9.6894   9.7742
     9.8046   9.8484   9.9010   9.9514  10.0138  10.0582  10.1233  10.1593
    10.1711  10.1749  10.3858  10.3859  10.5794  10.6024  10.7378  10.9433
    11.1148  11.2750  11.4926  11.5931  11.6714  11.8205  11.8937  12.1230

     occupation numbers 
     1.0000   1.0000   1.0000   1.0000   1.0000   1.0000   1.0000   1.0000
     1.0000   1.0000   1.0000   1.0000   1.0000   1.0000   1.0000   1.0000
     1.0000   1.0000   1.0000   1.0000   1.0000   1.0000   1.0000   1.0000
     1.0000   1.0000   1.0000   1.0000   1.0000   1.0000   1.0000   1.0000
     1.0000   1.0000   1.0000   1.0000   1.0000   1.0000   1.0000   1.0000
     1.0000   1.0000   1.0000   1.0000   1.0000   1.0000   1.0000   1.0000
     1.0000   1.0000   1.0000   1.0000   1.0000   1.0000   1.0000   1.0000
     1.0000   1.0000   1.0000   1.0000   1.0000   1.0000   1.0000   1.0000
     1.0000   1.0000   1.0000   1.0000   1.0000   1.0000   1.0000   1.0000
     1.0000   1.0000   1.0000   1.0000   1.0000   1.0000   1.0000   1.0002
     0.9542   0.7738   0.0482   0.0000   0.0000   0.0000   0.0000   0.0000
     0.0000   0.0000   0.0000   0.0000   0.0000   0.0000   0.0000   0.0000
     0.0000   0.0000   0.0000   0.0000   0.0000   0.0000   0.0000   0.0000
     0.0000   0.0000   0.0000   0.0000   0.0000   0.0000   0.0000   0.0000
     0.0000   0.0000   0.0000   0.0000   0.0000   0.0000   0.0000   0.0000

          k = 0.1667-0.5774 0.0000 ( 17399 PWs)   bands (ev):

   -50.0455 -50.0455 -49.9721 -49.9610 -49.9282 -49.9279 -49.7738 -49.7738
   -49.3283 -49.3283 -26.6690 -26.6586 -26.6096 -26.5542 -26.5463 -26.5357
   -26.4232 -26.4190 -26.3739 -26.3717 -26.3387 -26.3279 -26.3035 -26.2726
   -26.2615 -26.2527 -26.2093 -26.2008 -26.1709 -26.1526 -26.1330 -26.1326
   -26.0880 -26.0880 -25.7952 -25.7952 -25.7120 -25.7120 -25.5782 -25.5782
    -7.6891  -7.6337  -7.5352  -7.4863  -7.4205  -7.2547  -7.1020  -7.0159
    -6.9976   0.2109   0.3896   0.6631   0.9399   1.2266   1.5526   1.8077
     1.9432   2.0007   2.3350   2.3787   2.4113   2.4580   2.5057   2.5503
     2.5801   2.6084   2.6522   2.7212   2.7514   2.8417   2.8603   2.9601
     2.9981   3.0890   3.4197   3.7208   6.3628   6.5010   6.8468   7.2868
     7.7702   7.8520   7.9139   8.3967   8.8483   9.0687   9.0728   9.0940
     9.1012   9.3269   9.3562   9.4557   9.4870   9.5076   9.6164   9.7431
     9.8495   9.9070   9.9177   9.9587  10.0048  10.0319  10.1154  10.1628
    10.1654  10.1703  10.4578  10.4578  10.5603  10.6168  10.7769  10.9867
    11.1283  11.2858  11.5113  11.5823  11.6994  11.9098  11.9761  12.2296

     occupation numbers 
     1.0000   1.0000   1.0000   1.0000   1.0000   1.0000   1.0000   1.0000
     1.0000   1.0000   1.0000   1.0000   1.0000   1.0000   1.0000   1.0000
     1.0000   1.0000   1.0000   1.0000   1.0000   1.0000   1.0000   1.0000
     1.0000   1.0000   1.0000   1.0000   1.0000   1.0000   1.0000   1.0000
     1.0000   1.0000   1.0000   1.0000   1.0000   1.0000   1.0000   1.0000
     1.0000   1.0000   1.0000   1.0000   1.0000   1.0000   1.0000   1.0000
     1.0000   1.0000   1.0000   1.0000   1.0000   1.0000   1.0000   1.0000
     1.0000   1.0000   1.0000   1.0000   1.0000   1.0000   1.0000   1.0000
     1.0000   1.0000   1.0000   1.0000   1.0000   1.0000   1.0000   1.0000
     1.0000   1.0000   1.0000   1.0000   1.0000   1.0000   1.0000   1.0000
     0.4998   0.1506   0.0393   0.0000   0.0000   0.0000   0.0000   0.0000
     0.0000   0.0000   0.0000   0.0000   0.0000   0.0000   0.0000   0.0000
     0.0000   0.0000   0.0000   0.0000   0.0000   0.0000   0.0000   0.0000
     0.0000   0.0000   0.0000   0.0000   0.0000   0.0000   0.0000   0.0000
     0.0000   0.0000   0.0000   0.0000   0.0000   0.0000   0.0000   0.0000

          k = 0.2500-0.7217 0.0000 ( 17473 PWs)   bands (ev):

   -50.0496 -50.0496 -49.9787 -49.9635 -49.9311 -49.9304 -49.7777 -49.7776
   -49.3318 -49.3318 -26.6052 -26.6017 -26.5582 -26.5446 -26.5295 -26.4890
   -26.4425 -26.4128 -26.3878 -26.3754 -26.3578 -26.2897 -26.2865 -26.2803
   -26.2521 -26.2487 -26.2297 -26.2088 -26.1740 -26.1420 -26.1354 -26.1350
   -26.1019 -26.1008 -25.7539 -25.7539 -25.7142 -25.7142 -25.5921 -25.5921
    -7.4987  -7.4985  -7.4749  -7.4749  -7.4327  -7.3978  -7.3754  -7.2297
    -7.2297   0.8615   0.8934   0.9960   1.0981   1.2102   1.4166   1.6728
     1.9287   2.1837   2.3313   2.3487   2.4105   2.4374   2.4608   2.5107
     2.5117   2.5844   2.6500   2.6627   2.7099   2.7663   2.9097   2.9216
     3.0613   3.1018   3.1721   3.2067   7.0386   7.0453   7.4186   7.4526
     7.5870   7.6531   7.8997   7.9921   8.3085   8.4230   8.6575   8.9302
     8.9942   9.0296   9.2381   9.4933   9.5313   9.5538   9.6784   9.6923
     9.6980   9.7858   9.8195   9.8928  10.0016  10.0830  10.1300  10.1423
    10.1565  10.1711  10.3842  10.3842  10.8162  10.9560  11.0050  11.0988
    11.2353  11.3356  11.4450  11.6550  11.6918  11.7201  11.7944  11.8618

     occupation numbers 
     1.0000   1.0000   1.0000   1.0000   1.0000   1.0000   1.0000   1.0000
     1.0000   1.0000   1.0000   1.0000   1.0000   1.0000   1.0000   1.0000
     1.0000   1.0000   1.0000   1.0000   1.0000   1.0000   1.0000   1.0000
     1.0000   1.0000   1.0000   1.0000   1.0000   1.0000   1.0000   1.0000
     1.0000   1.0000   1.0000   1.0000   1.0000   1.0000   1.0000   1.0000
     1.0000   1.0000   1.0000   1.0000   1.0000   1.0000   1.0000   1.0000
     1.0000   1.0000   1.0000   1.0000   1.0000   1.0000   1.0000   1.0000
     1.0000   1.0000   1.0000   1.0000   1.0000   1.0000   1.0000   1.0000
     1.0000   1.0000   1.0000   1.0000   1.0000   1.0000   1.0000   1.0000
     1.0000   1.0000   1.0000   1.0000   1.0000   1.0000   1.0047   1.0114
     1.0822   1.0267   0.0554   0.0041   0.0000   0.0000   0.0000   0.0000
     0.0000   0.0000   0.0000   0.0000   0.0000   0.0000   0.0000   0.0000
     0.0000   0.0000   0.0000   0.0000   0.0000   0.0000   0.0000   0.0000
     0.0000   0.0000   0.0000   0.0000   0.0000   0.0000   0.0000   0.0000
     0.0000   0.0000   0.0000   0.0000   0.0000   0.0000   0.0000   0.0000

          k = 0.2500-0.6255 0.0000 ( 17403 PWs)   bands (ev):

   -50.0432 -50.0431 -49.9680 -49.9600 -49.9266 -49.9265 -49.7717 -49.7717
   -49.3263 -49.3263 -26.6144 -26.6070 -26.5625 -26.5366 -26.5208 -26.4962
   -26.4574 -26.4530 -26.4103 -26.3891 -26.3734 -26.3411 -26.3207 -26.2957
   -26.2539 -26.2457 -26.2323 -26.2091 -26.1871 -26.1714 -26.1562 -26.1531
   -26.1175 -26.1172 -25.7634 -25.7634 -25.7122 -25.7122 -25.6309 -25.6309
    -7.4935  -7.4756  -7.4268  -7.4203  -7.3866  -7.2862  -7.2099  -7.1110
    -7.1105   0.7124   0.8199   0.9890   1.1377   1.2905   1.5018   1.7071
     1.8755   2.0356   2.1087   2.2291   2.2721   2.3315   2.3482   2.4004
     2.4415   2.4938   2.5228   2.6348   2.6824   2.7492   2.7613   2.8273
     2.8457   2.9314   3.1175   3.2549   7.1270   7.1407   7.4781   7.6749
     7.7495   7.9215   8.3155   8.3580   8.5545   8.6885   8.8743   8.9346
     9.1121   9.1851   9.2776   9.3161   9.3565   9.4402   9.4983   9.6358
     9.6884   9.7956   9.8046   9.8897  10.0011  10.0261  10.1050  10.1162
    10.1360  10.1572  10.4540  10.4543  11.0169  11.0465  11.1546  11.1982
    11.3532  11.4171  11.5439  11.6491  11.7179  11.7905  11.9132  11.9541

     occupation numbers 
     1.0000   1.0000   1.0000   1.0000   1.0000   1.0000   1.0000   1.0000
     1.0000   1.0000   1.0000   1.0000   1.0000   1.0000   1.0000   1.0000
     1.0000   1.0000   1.0000   1.0000   1.0000   1.0000   1.0000   1.0000
     1.0000   1.0000   1.0000   1.0000   1.0000   1.0000   1.0000   1.0000
     1.0000   1.0000   1.0000   1.0000   1.0000   1.0000   1.0000   1.0000
     1.0000   1.0000   1.0000   1.0000   1.0000   1.0000   1.0000   1.0000
     1.0000   1.0000   1.0000   1.0000   1.0000   1.0000   1.0000   1.0000
     1.0000   1.0000   1.0000   1.0000   1.0000   1.0000   1.0000   1.0000
     1.0000   1.0000   1.0000   1.0000   1.0000   1.0000   1.0000   1.0000
     1.0000   1.0000   1.0000   1.0000   1.0000   1.0000   1.0202   0.9661
     0.6138   0.0324   0.0000   0.0000   0.0000   0.0000   0.0000   0.0000
     0.0000   0.0000   0.0000   0.0000   0.0000   0.0000   0.0000   0.0000
     0.0000   0.0000   0.0000   0.0000   0.0000   0.0000   0.0000   0.0000
     0.0000   0.0000   0.0000   0.0000   0.0000   0.0000   0.0000   0.0000
     0.0000   0.0000   0.0000   0.0000   0.0000   0.0000   0.0000   0.0000

          k = 0.3333-0.5774 0.0000 ( 17397 PWs)   bands (ev):

   -50.0408 -50.0408 -49.9614 -49.9614 -49.9250 -49.9250 -49.7695 -49.7695
   -49.3243 -49.3243 -26.5549 -26.5549 -26.5531 -26.5436 -26.5155 -26.5155
   -26.4976 -26.4455 -26.4455 -26.3990 -26.3880 -26.3880 -26.3086 -26.3086
   -26.2525 -26.2508 -26.2094 -26.2094 -26.1967 -26.1967 -26.1947 -26.1812
   -26.1173 -26.1173 -25.7437 -25.7437 -25.7122 -25.7122 -25.6695 -25.6695
    -7.3891  -7.3891  -7.3834  -7.3834  -7.3054  -7.2943  -7.2943  -7.1196
    -7.1196   1.2224   1.2266   1.2690   1.2690   1.3238   1.3238   1.3474
     1.3474   1.8700   1.8701   2.2133   2.2440   2.2440   2.2754   2.3407
     2.3407   2.3744   2.3744   2.7853   2.7853   2.8037   2.8410   2.8410
     2.8767   2.8948   2.8951   2.8951   7.3872   7.3872   7.7954   7.7954
     8.3064   8.3499   8.3499   8.4024   8.5507   8.5507   8.5849   8.9490
     8.9490   8.9796   9.1904   9.2492   9.2492   9.4520   9.4520   9.4771
     9.5620   9.6989   9.6989  10.0203  10.0203  10.0337  10.0852  10.0852
    10.1153  10.1303  10.4632  10.4632  11.2496  11.2713  11.2713  11.3386
    11.3827  11.3827  11.4367  11.5489  11.5489  12.2505  12.2505  12.2706

     occupation numbers 
     1.0000   1.0000   1.0000   1.0000   1.0000   1.0000   1.0000   1.0000
     1.0000   1.0000   1.0000   1.0000   1.0000   1.0000   1.0000   1.0000
     1.0000   1.0000   1.0000   1.0000   1.0000   1.0000   1.0000   1.0000
     1.0000   1.0000   1.0000   1.0000   1.0000   1.0000   1.0000   1.0000
     1.0000   1.0000   1.0000   1.0000   1.0000   1.0000   1.0000   1.0000
     1.0000   1.0000   1.0000   1.0000   1.0000   1.0000   1.0000   1.0000
     1.0000   1.0000   1.0000   1.0000   1.0000   1.0000   1.0000   1.0000
     1.0000   1.0000   1.0000   1.0000   1.0000   1.0000   1.0000   1.0000
     1.0000   1.0000   1.0000   1.0000   1.0000   1.0000   1.0000   1.0000
     1.0000   1.0000   1.0000   1.0000   1.0018   1.0018   0.3694   0.3694
     0.0000   0.0000   0.0000   0.0000   0.0000   0.0000   0.0000   0.0000
     0.0000   0.0000   0.0000   0.0000   0.0000   0.0000   0.0000   0.0000
     0.0000   0.0000   0.0000   0.0000   0.0000   0.0000   0.0000   0.0000
     0.0000   0.0000   0.0000   0.0000   0.0000   0.0000   0.0000   0.0000
     0.0000   0.0000   0.0000   0.0000   0.0000   0.0000   0.0000   0.0000

     the Fermi energy is     7.7891 ev

!    total energy              =   -1383.70583750 Ry
     estimated scf accuracy    <          2.7E-10 Ry
     smearing contrib. (-TS)   =      -0.00041828 Ry
     internal energy E=F+TS    =   -1383.70541923 Ry

     The total energy is F=E-TS. E is the sum of the following terms:
     one-electron contribution =  -31120.13720118 Ry
     hartree contribution      =   15598.28703614 Ry
     xc contribution           =    -238.31604234 Ry
     ewald contribution        =   14376.46078816 Ry

     convergence has been achieved in  11 iterations

     negative rho (up, down):  2.199E-04 0.000E+00

     Forces acting on atoms (cartesian axes, Ry/au):

     atom    1 type  1   force =    -0.00000000   -0.00000000    0.00056978
     atom    2 type  2   force =     0.00000000    0.00000000   -0.00078431
     atom    3 type  1   force =     0.00000000   -0.00000000    0.00212492
     atom    4 type  2   force =     0.00000000    0.00000000   -0.00123664
     atom    5 type  1   force =     0.00000000   -0.00000000   -0.00220527
     atom    6 type  2   force =     0.00000000   -0.00000000   -0.00018945
     atom    7 type  1   force =    -0.00000000   -0.00000000   -0.00735200
     atom    8 type  2   force =    -0.00000000    0.00000000    0.00275276
     atom    9 type  1   force =     0.00000000   -0.00000000    0.00696107
     atom   10 type  2   force =    -0.00000000   -0.00000000    0.00000000
     atom   11 type  1   force =    -0.00000000    0.00000000   -0.00696107
     atom   12 type  2   force =     0.00000000   -0.00000000   -0.00275276
     atom   13 type  1   force =     0.00000000    0.00000000    0.00735200
     atom   14 type  2   force =     0.00000000    0.00000000    0.00018945
     atom   15 type  1   force =    -0.00000000    0.00000000    0.00220527
     atom   16 type  2   force =     0.00000000    0.00000000    0.00123664
     atom   17 type  1   force =     0.00000000   -0.00000000   -0.00212492
     atom   18 type  2   force =     0.00000000    0.00000000    0.00078431
     atom   19 type  1   force =     0.00000000    0.00000000   -0.00056978
     The non-local contrib.  to forces
     atom    1 type  1   force =     0.00000000   -0.00000000    0.05747691
     atom    2 type  2   force =     0.00000000    0.00000000    0.03826982
     atom    3 type  1   force =    -0.00000000   -0.00000000   -0.02315405
     atom    4 type  2   force =     0.00000000    0.00000000    0.00629800
     atom    5 type  1   force =     0.00000000    0.00000000    0.01288322
     atom    6 type  2   force =     0.00000000    0.00000000   -0.00123298
     atom    7 type  1   force =     0.00000000    0.00000000   -0.00529575
     atom    8 type  2   force =    -0.00000000    0.00000000   -0.00123686
     atom    9 type  1   force =     0.00000000   -0.00000000    0.00221097
     atom   10 type  2   force =     0.00000000    0.00000000    0.00000000
     atom   11 type  1   force =     0.00000000    0.00000000   -0.00221097
     atom   12 type  2   force =     0.00000000   -0.00000000    0.00123686
     atom   13 type  1   force =     0.00000000    0.00000000    0.00529575
     atom   14 type  2   force =     0.00000000    0.00000000    0.00123298
     atom   15 type  1   force =     0.00000000   -0.00000000   -0.01288322
     atom   16 type  2   force =     0.00000000    0.00000000   -0.00629800
     atom   17 type  1   force =     0.00000000    0.00000000    0.02315405
     atom   18 type  2   force =     0.00000000   -0.00000000   -0.03826982
     atom   19 type  1   force =     0.00000000   -0.00000000   -0.05747691
     The ionic contribution  to forces
     atom    1 type  1   force =     0.00000000   -0.00000000 -357.80459382
     atom    2 type  2   force =    -0.00000000    0.00000000 -133.45431249
     atom    3 type  1   force =     0.00000000   -0.00000000 -278.71977825
     atom    4 type  2   force =    -0.00000000   -0.00000000  -99.83142201
     atom    5 type  1   force =    -0.00000000    0.00000000 -200.38539783
     atom    6 type  2   force =     0.00000000   -0.00000000  -66.79694207
     atom    7 type  1   force =    -0.00000000   -0.00000000 -119.95826139
     atom    8 type  2   force =    -0.00000000    0.00000000  -33.32249768
     atom    9 type  1   force =     0.00000000   -0.00000000  -39.98996256
     atom   10 type  2   force =    -0.00000000   -0.00000000    0.00000000
     atom   11 type  1   force =    -0.00000000    0.00000000   39.98996256
     atom   12 type  2   force =     0.00000000   -0.00000000   33.32249768
     atom   13 type  1   force =    -0.00000000   -0.00000000  119.95826139
     atom   14 type  2   force =    -0.00000000    0.00000000   66.79694207
     atom   15 type  1   force =     0.00000000   -0.00000000  200.38539783
     atom   16 type  2   force =    -0.00000000   -0.00000000   99.83142201
     atom   17 type  1   force =    -0.00000000    0.00000000  278.71977825
     atom   18 type  2   force =     0.00000000   -0.00000000  133.45431249
     atom   19 type  1   force =    -0.00000000    0.00000000  357.80459382
     The local contribution  to forces
     atom    1 type  1   force =     0.00000000   -0.00000000  357.75932916
     atom    2 type  2   force =    -0.00000001    0.00000001  133.41623894
     atom    3 type  1   force =     0.00000006   -0.00000004  278.74379950
     atom    4 type  2   force =     0.00000000   -0.00000000   99.82389114
     atom    5 type  1   force =    -0.00000005    0.00000006  200.37100046
     atom    6 type  2   force =     0.00000001   -0.00000001   66.79810596
     atom    7 type  1   force =     0.00000000   -0.00000000  119.95637929
     atom    8 type  2   force =    -0.00000001    0.00000001   33.32644419
     atom    9 type  1   force =     0.00000006   -0.00000004   39.99481925
     atom   10 type  2   force =    -0.00000000    0.00000000    0.00000000
     atom   11 type  1   force =    -0.00000005    0.00000006  -39.99481925
     atom   12 type  2   force =     0.00000001   -0.00000001  -33.32644419
     atom   13 type  1   force =     0.00000000    0.00000000 -119.95637929
     atom   14 type  2   force =    -0.00000001    0.00000001  -66.79810596
     atom   15 type  1   force =     0.00000006   -0.00000004 -200.37100046
     atom   16 type  2   force =    -0.00000000    0.00000000  -99.82389114
     atom   17 type  1   force =    -0.00000005    0.00000006 -278.74379950
     atom   18 type  2   force =     0.00000001   -0.00000001 -133.41623894
     atom   19 type  1   force =    -0.00000000    0.00000000 -357.75932916
     The core correction contribution to forces
     atom    1 type  1   force =    -0.00000000    0.00000000   -0.01163540
     atom    2 type  2   force =     0.00000000   -0.00000000   -0.00096762
     atom    3 type  1   force =    -0.00000000    0.00000000    0.00126269
     atom    4 type  2   force =     0.00000000   -0.00000000    0.00000035
     atom    5 type  1   force =     0.00000000   -0.00000000   -0.00067177
     atom    6 type  2   force =    -0.00000000    0.00000000   -0.00011988
     atom    7 type  1   force =     0.00000000   -0.00000000   -0.00017332
     atom    8 type  2   force =     0.00000000   -0.00000000    0.00004263
     atom    9 type  1   force =    -0.00000000    0.00000000   -0.00010929
     atom   10 type  2   force =     0.00000000    0.00000000    0.00000000
     atom   11 type  1   force =     0.00000000   -0.00000000    0.00010929
     atom   12 type  2   force =    -0.00000000    0.00000000   -0.00004263
     atom   13 type  1   force =    -0.00000000    0.00000000    0.00017332
     atom   14 type  2   force =     0.00000000   -0.00000000    0.00011988
     atom   15 type  1   force =    -0.00000000    0.00000000    0.00067177
     atom   16 type  2   force =    -0.00000000    0.00000000   -0.00000035
     atom   17 type  1   force =     0.00000000   -0.00000000   -0.00126269
     atom   18 type  2   force =    -0.00000000    0.00000000    0.00096762
     atom   19 type  1   force =     0.00000000   -0.00000000    0.01163540
     The Hubbard contrib.    to forces
     atom    1 type  1   force =     0.00000000    0.00000000    0.00000000
     atom    2 type  2   force =     0.00000000    0.00000000    0.00000000
     atom    3 type  1   force =     0.00000000    0.00000000    0.00000000
     atom    4 type  2   force =     0.00000000    0.00000000    0.00000000
     atom    5 type  1   force =     0.00000000    0.00000000    0.00000000
     atom    6 type  2   force =     0.00000000    0.00000000    0.00000000
     atom    7 type  1   force =     0.00000000    0.00000000    0.00000000
     atom    8 type  2   force =     0.00000000    0.00000000    0.00000000
     atom    9 type  1   force =     0.00000000    0.00000000    0.00000000
     atom   10 type  2   force =     0.00000000    0.00000000    0.00000000
     atom   11 type  1   force =     0.00000000    0.00000000    0.00000000
     atom   12 type  2   force =     0.00000000    0.00000000    0.00000000
     atom   13 type  1   force =     0.00000000    0.00000000    0.00000000
     atom   14 type  2   force =     0.00000000    0.00000000    0.00000000
     atom   15 type  1   force =     0.00000000    0.00000000    0.00000000
     atom   16 type  2   force =     0.00000000    0.00000000    0.00000000
     atom   17 type  1   force =     0.00000000    0.00000000    0.00000000
     atom   18 type  2   force =     0.00000000    0.00000000    0.00000000
     atom   19 type  1   force =     0.00000000    0.00000000    0.00000000
     The SCF correction term to forces
     atom    1 type  1   force =    -0.00000000    0.00000000   -0.00000706
     atom    2 type  2   force =    -0.00000000    0.00000000   -0.00001296
     atom    3 type  1   force =    -0.00000000    0.00000000   -0.00000497
     atom    4 type  2   force =     0.00000000    0.00000000   -0.00000412
     atom    5 type  1   force =     0.00000000   -0.00000000   -0.00001935
     atom    6 type  2   force =     0.00000000   -0.00000000   -0.00000047
     atom    7 type  1   force =     0.00000000   -0.00000000   -0.00000000
     atom    8 type  2   force =    -0.00000000   -0.00000000    0.00000000
     atom    9 type  1   force =     0.00000000    0.00000000    0.00000000
     atom   10 type  2   force =    -0.00000000    0.00000000   -0.00000000
     atom   11 type  1   force =    -0.00000000   -0.00000000   -0.00000000
     atom   12 type  2   force =    -0.00000000    0.00000000   -0.00000000
     atom   13 type  1   force =    -0.00000000    0.00000000    0.00000000
     atom   14 type  2   force =    -0.00000000    0.00000000    0.00000047
     atom   15 type  1   force =    -0.00000000    0.00000000    0.00001935
     atom   16 type  2   force =     0.00000000    0.00000000    0.00000412
     atom   17 type  1   force =     0.00000000   -0.00000000    0.00000497
     atom   18 type  2   force =     0.00000000   -0.00000000    0.00001296
     atom   19 type  1   force =     0.00000000   -0.00000000    0.00000706

     Total force =     0.004875     Total SCF correction =     0.000036


     Computing stress (Cartesian axis) and pressure


     negative rho (up, down):  2.199E-04 0.000E+00
          total   stress  (Ry/bohr**3)                   (kbar)     P=        2.28
   0.00002022   0.00000000   0.00000000            2.97        0.00        0.00
   0.00000000   0.00002022   0.00000000            0.00        2.97        0.00
   0.00000000   0.00000000   0.00000602            0.00        0.00        0.89

     kinetic stress (kbar)  23061.04      0.00      0.00
                                0.00  23061.04      0.00
                                0.00      0.00  22971.26

     local   stress (kbar)**********      0.00     -0.00
                                0.00**********      0.00
                               -0.00      0.002050823.03

     nonloc. stress (kbar)      0.85      0.00      0.00
                                0.00      0.85      0.00
                                0.00      0.00     41.66

     hartree stress (kbar)1026475.10      0.00      0.00
                                0.001026475.10     -0.00
                                0.00     -0.00**********

     exc-cor stress (kbar)  -1520.85     -0.00     -0.00
                               -0.00  -1520.85      0.00
                               -0.00      0.00  -1524.40

     corecor stress (kbar)  -3162.14      0.00     -0.00
                                0.00  -3162.14      0.00
                               -0.00      0.00  -3161.82

     ewald   stress (kbar)1004224.01     -0.00      0.00
                               -0.001004224.01     -0.00
                                0.00     -0.00**********

     hubbard stress (kbar)      0.00      0.00      0.00
                                0.00      0.00      0.00
                                0.00      0.00      0.00

     DFT-D   stress (kbar)      0.00      0.00      0.00
                                0.00      0.00      0.00
                                0.00      0.00      0.00

     XDM     stress (kbar)      0.00      0.00      0.00
                                0.00      0.00      0.00
                                0.00      0.00      0.00

     dft-nl  stress (kbar)      0.00      0.00      0.00
                                0.00      0.00      0.00
                                0.00      0.00      0.00

     TS-vdW  stress (kbar)      0.00      0.00      0.00
                                0.00      0.00      0.00
                                0.00      0.00      0.00


     Energy error            =      4.7E-05
     Gradient error          =      2.2E-03

     number of scf cycles    =   5
     number of bfgs steps    =   4

     energy   old            =   -1383.7057907568 Ry
     energy   new            =   -1383.7058375049 Ry

     CASE: energy  _new < energy  _old

     new trust radius        =       0.0041713591 bohr
     new conv_thr            =       0.0000000002 Ry


ATOMIC_POSITIONS (angstrom)
Ti           -0.0000000000       -0.0000000000       10.0726069837
N             1.5004805900        0.8663028720       11.1740518391
Ti            3.0009611790        1.7326057450       12.4141778626
N            -0.0000000000        0.0000000000       13.6726477516
Ti            1.5004805900        0.8663028720       14.9190793952
N             3.0009611790        1.7326057450       16.1205875667
Ti            0.0000000000        0.0000000000       17.3508236270    0   0   0
N             1.5004805900        0.8663028720       18.5759608990    0   0   0
Ti            3.0009611790        1.7326057450       19.8010981700    0   0   0
N             0.0000000000        0.0000000000       21.0262354410    0   0   0
Ti            1.5004805900        0.8663028720       22.2513727120    0   0   0
N             3.0009611790        1.7326057450       23.4765099830    0   0   0
Ti            0.0000000000        0.0000000000       24.7016472550    0   0   0
N             1.5004805900        0.8663028720       25.9318833153
Ti            3.0009611790        1.7326057450       27.1333914868
N             0.0000000000       -0.0000000000       28.3798231304
Ti            1.5004805900        0.8663028720       29.6382930194
N             3.0009611790        1.7326057450       30.8784190429
Ti            0.0000000000        0.0000000000       31.9798638983



     Writing output data file ./tmp/tin111.save/
     NEW-OLD atomic charge density approx. for the potential

     Check: negative core charge=   -0.000003

     negative rho (up, down):  2.196E-04 0.000E+00

     total cpu time spent up to now is     1868.1 secs

     Self-consistent Calculation

     iteration #  1     ecut=    60.00 Ry     beta= 0.20
     Davidson diagonalization with overlap
     ethr =  1.00E-06,  avg # of iterations =  3.0

     Threshold (ethr) on eigenvalues was too large:
     Diagonalizing with lowered threshold

     Davidson diagonalization with overlap
     ethr =  4.37E-08,  avg # of iterations =  1.6

     negative rho (up, down):  2.197E-04 0.000E+00

     total cpu time spent up to now is     1918.9 secs

     total energy              =   -1383.70584696 Ry
     estimated scf accuracy    <       0.00007725 Ry

     iteration #  2     ecut=    60.00 Ry     beta= 0.20
     Davidson diagonalization with overlap
     ethr =  4.68E-08,  avg # of iterations =  2.0

     negative rho (up, down):  2.202E-04 0.000E+00

     total cpu time spent up to now is     1940.6 secs

     total energy              =   -1383.70569453 Ry
     estimated scf accuracy    <       0.02337682 Ry

     iteration #  3     ecut=    60.00 Ry     beta= 0.20
     Davidson diagonalization with overlap
     ethr =  4.68E-08,  avg # of iterations =  1.3

     negative rho (up, down):  2.204E-04 0.000E+00

     total cpu time spent up to now is     1959.6 secs

     total energy              =   -1383.70582493 Ry
     estimated scf accuracy    <       0.00430341 Ry

     iteration #  4     ecut=    60.00 Ry     beta= 0.20
     Davidson diagonalization with overlap
     ethr =  4.68E-08,  avg # of iterations =  1.2

     negative rho (up, down):  2.205E-04 0.000E+00

     total cpu time spent up to now is     1977.1 secs

     total energy              =   -1383.70586355 Ry
     estimated scf accuracy    <       0.00017986 Ry

     iteration #  5     ecut=    60.00 Ry     beta= 0.20
     Davidson diagonalization with overlap
     ethr =  4.68E-08,  avg # of iterations =  1.0

     negative rho (up, down):  2.202E-04 0.000E+00

     total cpu time spent up to now is     1995.1 secs

     total energy              =   -1383.70586843 Ry
     estimated scf accuracy    <       0.00000300 Ry

     iteration #  6     ecut=    60.00 Ry     beta= 0.20
     Davidson diagonalization with overlap
     ethr =  1.82E-09,  avg # of iterations =  1.7

     negative rho (up, down):  2.201E-04 0.000E+00

     total cpu time spent up to now is     2015.6 secs

     total energy              =   -1383.70586846 Ry
     estimated scf accuracy    <       0.00000078 Ry

     iteration #  7     ecut=    60.00 Ry     beta= 0.20
     Davidson diagonalization with overlap
     ethr =  4.71E-10,  avg # of iterations =  2.1

     negative rho (up, down):  2.201E-04 0.000E+00

     total cpu time spent up to now is     2036.9 secs

     total energy              =   -1383.70586848 Ry
     estimated scf accuracy    <       0.00000048 Ry

     iteration #  8     ecut=    60.00 Ry     beta= 0.20
     Davidson diagonalization with overlap
     ethr =  2.88E-10,  avg # of iterations =  1.3

     negative rho (up, down):  2.201E-04 0.000E+00

     total cpu time spent up to now is     2055.2 secs

     total energy              =   -1383.70586852 Ry
     estimated scf accuracy    <       0.00000006 Ry

     iteration #  9     ecut=    60.00 Ry     beta= 0.20
     Davidson diagonalization with overlap
     ethr =  3.37E-11,  avg # of iterations =  3.7

     negative rho (up, down):  2.201E-04 0.000E+00

     total cpu time spent up to now is     2076.8 secs

     total energy              =   -1383.70586853 Ry
     estimated scf accuracy    <       0.00000002 Ry

     iteration # 10     ecut=    60.00 Ry     beta= 0.20
     Davidson diagonalization with overlap
     ethr =  1.09E-11,  avg # of iterations =  2.6

     negative rho (up, down):  2.201E-04 0.000E+00

     total cpu time spent up to now is     2098.7 secs

     total energy              =   -1383.70586853 Ry
     estimated scf accuracy    <          1.7E-09 Ry

     iteration # 11     ecut=    60.00 Ry     beta= 0.20
     Davidson diagonalization with overlap
     ethr =  1.05E-12,  avg # of iterations =  4.4

     negative rho (up, down):  2.202E-04 0.000E+00

     total cpu time spent up to now is     2120.5 secs

     total energy              =   -1383.70586853 Ry
     estimated scf accuracy    <          4.5E-10 Ry

     iteration # 12     ecut=    60.00 Ry     beta= 0.20
     Davidson diagonalization with overlap
     ethr =  2.75E-13,  avg # of iterations =  2.3

     negative rho (up, down):  2.202E-04 0.000E+00

     total cpu time spent up to now is     2140.9 secs

     total energy              =   -1383.70586853 Ry
     estimated scf accuracy    <          2.4E-10 Ry

     iteration # 13     ecut=    60.00 Ry     beta= 0.20
     Davidson diagonalization with overlap
     ethr =  1.47E-13,  avg # of iterations =  1.8

     negative rho (up, down):  2.202E-04 0.000E+00

     total cpu time spent up to now is     2160.3 secs

     total energy              =   -1383.70586853 Ry
     estimated scf accuracy    <          1.2E-09 Ry

     iteration # 14     ecut=    60.00 Ry     beta= 0.20
     Davidson diagonalization with overlap
     ethr =  1.47E-13,  avg # of iterations =  1.0

     negative rho (up, down):  2.202E-04 0.000E+00

     total cpu time spent up to now is     2177.1 secs

     End of self-consistent calculation

          k = 0.0000 0.0000 0.0000 ( 17133 PWs)   bands (ev):

   -50.1198 -50.1196 -50.0640 -50.0255 -49.9852 -49.9758 -49.8400 -49.8400
   -49.3911 -49.3911 -26.6988 -26.6480 -26.5526 -26.4096 -26.2965 -26.2368
   -26.1835 -26.1835 -26.1835 -26.1835 -26.1622 -26.1175 -26.1175 -26.0956
   -26.0933 -26.0933 -26.0632 -26.0632 -26.0597 -26.0597 -25.9085 -25.9085
   -25.9085 -25.9085 -25.7406 -25.7406 -25.4182 -25.4182 -25.4182 -25.4182
    -9.2708  -9.1010  -8.8351  -8.5590  -8.2620  -7.8631  -7.4525  -7.1416
    -6.9339  -0.1918   0.1380   0.6298   1.2090   1.9328   2.3518   2.3518
     2.5150   2.5150   2.7662   2.7662   2.8357   3.0089   3.0089   3.3256
     3.3256   3.7731   3.8600   3.8600   4.4942   4.4942   4.6173   5.0538
     5.0538   5.3522   5.5150   5.5150   6.9803   7.0435   7.2357   7.2357
     7.3248   7.4251   7.4251   7.5423   7.6869   7.6869   7.8241   7.9559
     7.9559   8.1222   8.2243   8.2243   8.4592   8.4861   8.4861   8.5830
     8.5830   8.8492   8.8661   8.8661   8.9936   8.9936   9.2637   9.3141
     9.3141   9.4336   9.4336   9.6261   9.6261   9.6333   9.6333   9.6392
     9.9170  10.0779  10.1482  10.1482  10.9056  10.9056  11.6535  11.6535

     occupation numbers 
     1.0000   1.0000   1.0000   1.0000   1.0000   1.0000   1.0000   1.0000
     1.0000   1.0000   1.0000   1.0000   1.0000   1.0000   1.0000   1.0000
     1.0000   1.0000   1.0000   1.0000   1.0000   1.0000   1.0000   1.0000
     1.0000   1.0000   1.0000   1.0000   1.0000   1.0000   1.0000   1.0000
     1.0000   1.0000   1.0000   1.0000   1.0000   1.0000   1.0000   1.0000
     1.0000   1.0000   1.0000   1.0000   1.0000   1.0000   1.0000   1.0000
     1.0000   1.0000   1.0000   1.0000   1.0000   1.0000   1.0000   1.0000
     1.0000   1.0000   1.0000   1.0000   1.0000   1.0000   1.0000   1.0000
     1.0000   1.0000   1.0000   1.0000   1.0000   1.0000   1.0000   1.0000
     1.0000   1.0000   1.0000   1.0000   1.0000   1.0000   1.0000   1.0000
     1.0002   1.0056   1.0056   1.0585   0.9225   0.9225   0.2433   0.0126
     0.0126   0.0000   0.0000   0.0000   0.0000   0.0000   0.0000   0.0000
     0.0000   0.0000   0.0000   0.0000   0.0000   0.0000   0.0000   0.0000
     0.0000   0.0000   0.0000   0.0000   0.0000   0.0000   0.0000   0.0000
     0.0000   0.0000   0.0000   0.0000   0.0000   0.0000   0.0000   0.0000

          k = 0.0000 0.0962 0.0000 ( 17192 PWs)   bands (ev):

   -50.1151 -50.1150 -50.0587 -50.0212 -49.9816 -49.9727 -49.8357 -49.8357
   -49.3871 -49.3871 -26.6831 -26.6352 -26.5446 -26.4084 -26.3023 -26.2452
   -26.2074 -26.2060 -26.1914 -26.1914 -26.1719 -26.1466 -26.1281 -26.1165
   -26.1018 -26.1002 -26.0889 -26.0819 -26.0683 -26.0632 -25.9425 -25.9424
   -25.9155 -25.9155 -25.7358 -25.7358 -25.4478 -25.4478 -25.4246 -25.4246
    -9.1534  -8.9918  -8.7388  -8.4804  -8.2049  -7.8304  -7.4476  -7.1647
    -6.9796  -0.0436   0.2590   0.7057   1.2226   1.8480   2.3498   2.4012
     2.4994   2.5423   2.5581   2.7666   2.7986   2.9389   3.0263   3.2964
     3.3238   3.4167   3.8278   3.9804   4.0541   4.4085   4.5520   4.6461
     4.8850   4.9634   5.1535   5.2336   6.9194   6.9758   7.0884   7.2679
     7.3846   7.4969   7.5655   7.5766   7.7730   7.8383   7.8424   8.0217
     8.0908   8.1323   8.2852   8.3265   8.4551   8.5429   8.6472   8.6630
     8.7731   8.9323   8.9909   9.0264   9.0548   9.0724   9.3056   9.3660
     9.4018   9.4246   9.4982   9.5918   9.6716   9.6969   9.7987   9.8270
    10.0240  10.1209  10.2175  10.2973  10.8193  10.9513  11.4932  11.6771

     occupation numbers 
     1.0000   1.0000   1.0000   1.0000   1.0000   1.0000   1.0000   1.0000
     1.0000   1.0000   1.0000   1.0000   1.0000   1.0000   1.0000   1.0000
     1.0000   1.0000   1.0000   1.0000   1.0000   1.0000   1.0000   1.0000
     1.0000   1.0000   1.0000   1.0000   1.0000   1.0000   1.0000   1.0000
     1.0000   1.0000   1.0000   1.0000   1.0000   1.0000   1.0000   1.0000
     1.0000   1.0000   1.0000   1.0000   1.0000   1.0000   1.0000   1.0000
     1.0000   1.0000   1.0000   1.0000   1.0000   1.0000   1.0000   1.0000
     1.0000   1.0000   1.0000   1.0000   1.0000   1.0000   1.0000   1.0000
     1.0000   1.0000   1.0000   1.0000   1.0000   1.0000   1.0000   1.0000
     1.0000   1.0000   1.0000   1.0000   1.0000   1.0000   1.0000   1.0000
     1.0017   1.0293   1.0734   1.0788   0.4838   0.1922   0.1791   0.0015
     0.0001   0.0000   0.0000   0.0000   0.0000   0.0000   0.0000   0.0000
     0.0000   0.0000   0.0000   0.0000   0.0000   0.0000   0.0000   0.0000
     0.0000   0.0000   0.0000   0.0000   0.0000   0.0000   0.0000   0.0000
     0.0000   0.0000   0.0000   0.0000   0.0000   0.0000   0.0000   0.0000

          k = 0.0000 0.1925 0.0000 ( 17226 PWs)   bands (ev):

   -50.1024 -50.1023 -50.0442 -50.0094 -49.9717 -49.9642 -49.8239 -49.8239
   -49.3763 -49.3763 -26.6391 -26.6009 -26.5259 -26.4184 -26.3530 -26.3124
   -26.2585 -26.2284 -26.2214 -26.2130 -26.2129 -26.2100 -26.1659 -26.1549
   -26.1519 -26.1377 -26.1195 -26.1001 -26.0827 -26.0739 -26.0256 -26.0251
   -25.9346 -25.9346 -25.7277 -25.7277 -25.5272 -25.5272 -25.4421 -25.4421
    -8.8250  -8.6882  -8.4729  -8.2662  -8.0523  -7.7458  -7.4379  -7.2271
    -7.0982   0.3641   0.5876   0.9057   1.2557   1.6620   2.0559   2.3394
     2.3651   2.5174   2.5476   2.6332   2.6560   2.8670   2.9857   3.0546
     3.0965   3.3023   3.4327   3.6192   3.7311   3.7866   4.1326   4.1990
     4.3452   4.5439   4.6708   4.7681   6.4509   6.6953   7.0151   7.1007
     7.1624   7.4811   7.7423   7.8471   7.9081   7.9869   8.1524   8.2052
     8.2732   8.3887   8.5278   8.5806   8.6008   8.7061   8.8748   8.8763
     8.9630   9.1136   9.1881   9.2231   9.2957   9.3573   9.4714   9.4970
     9.6766   9.6832   9.7844   9.8421   9.8694   9.9080   9.9759  10.0121
    10.2288  10.4056  10.5165  10.7788  10.9623  11.0620  11.3013  11.7280

     occupation numbers 
     1.0000   1.0000   1.0000   1.0000   1.0000   1.0000   1.0000   1.0000
     1.0000   1.0000   1.0000   1.0000   1.0000   1.0000   1.0000   1.0000
     1.0000   1.0000   1.0000   1.0000   1.0000   1.0000   1.0000   1.0000
     1.0000   1.0000   1.0000   1.0000   1.0000   1.0000   1.0000   1.0000
     1.0000   1.0000   1.0000   1.0000   1.0000   1.0000   1.0000   1.0000
     1.0000   1.0000   1.0000   1.0000   1.0000   1.0000   1.0000   1.0000
     1.0000   1.0000   1.0000   1.0000   1.0000   1.0000   1.0000   1.0000
     1.0000   1.0000   1.0000   1.0000   1.0000   1.0000   1.0000   1.0000
     1.0000   1.0000   1.0000   1.0000   1.0000   1.0000   1.0000   1.0000
     1.0000   1.0000   1.0000   1.0000   1.0000   1.0000   1.0000   1.0000
     1.0000   1.0216   0.6528   0.1645   0.0452   0.0048   0.0000   0.0000
     0.0000   0.0000   0.0000   0.0000   0.0000   0.0000   0.0000   0.0000
     0.0000   0.0000   0.0000   0.0000   0.0000   0.0000   0.0000   0.0000
     0.0000   0.0000   0.0000   0.0000   0.0000   0.0000   0.0000   0.0000
     0.0000   0.0000   0.0000   0.0000   0.0000   0.0000   0.0000   0.0000

          k = 0.0000 0.2887 0.0000 ( 17282 PWs)   bands (ev):

   -50.0849 -50.0848 -50.0237 -49.9934 -49.9583 -49.9530 -49.8078 -49.8078
   -49.3616 -49.3616 -26.5795 -26.5593 -26.5190 -26.4790 -26.4558 -26.4169
   -26.3559 -26.3164 -26.2674 -26.2424 -26.2421 -26.2302 -26.2150 -26.2090
   -26.1886 -26.1703 -26.1459 -26.1302 -26.1040 -26.1033 -26.0941 -26.0902
   -25.9606 -25.9606 -25.7221 -25.7221 -25.6316 -25.6316 -25.4659 -25.4659
    -8.3634  -8.2672  -8.1104  -7.9814  -7.8555  -7.6404  -7.4248  -7.2939
    -7.2261   0.8291   0.9739   1.1462   1.2707   1.4552   1.7015   1.8771
     2.0059   2.1464   2.2779   2.4191   2.5990   2.6400   2.7149   2.8933
     2.9226   3.0418   3.1914   3.2426   3.4059   3.5855   3.6079   3.9651
     4.0032   4.2886   4.3411   4.4695   5.8536   6.1833   6.6367   7.1127
     7.2210   7.2245   7.6487   8.2042   8.2519   8.3762   8.4188   8.5328
     8.5696   8.7357   8.7657   8.7891   8.9498   8.9843   9.0468   9.0659
     9.1635   9.3294   9.4036   9.5090   9.6208   9.7072   9.7318   9.7416
     9.7902   9.8699   9.8868   9.9143   9.9949  10.0841  10.1593  10.6151
    10.7347  10.9427  11.1703  11.2190  11.2891  11.4273  11.5542  11.7399

     occupation numbers 
     1.0000   1.0000   1.0000   1.0000   1.0000   1.0000   1.0000   1.0000
     1.0000   1.0000   1.0000   1.0000   1.0000   1.0000   1.0000   1.0000
     1.0000   1.0000   1.0000   1.0000   1.0000   1.0000   1.0000   1.0000
     1.0000   1.0000   1.0000   1.0000   1.0000   1.0000   1.0000   1.0000
     1.0000   1.0000   1.0000   1.0000   1.0000   1.0000   1.0000   1.0000
     1.0000   1.0000   1.0000   1.0000   1.0000   1.0000   1.0000   1.0000
     1.0000   1.0000   1.0000   1.0000   1.0000   1.0000   1.0000   1.0000
     1.0000   1.0000   1.0000   1.0000   1.0000   1.0000   1.0000   1.0000
     1.0000   1.0000   1.0000   1.0000   1.0000   1.0000   1.0000   1.0000
     1.0000   1.0000   1.0000   1.0000   1.0000   1.0000   1.0000   1.0000
     1.0000   1.0000   1.0358   0.0000   0.0000   0.0000   0.0000   0.0000
     0.0000   0.0000   0.0000   0.0000   0.0000   0.0000   0.0000   0.0000
     0.0000   0.0000   0.0000   0.0000   0.0000   0.0000   0.0000   0.0000
     0.0000   0.0000   0.0000   0.0000   0.0000   0.0000   0.0000   0.0000
     0.0000   0.0000   0.0000   0.0000   0.0000   0.0000   0.0000   0.0000

          k = 0.0000 0.3849 0.0000 ( 17380 PWs)   bands (ev):

   -50.0674 -50.0673 -50.0021 -49.9776 -49.9452 -49.9422 -49.7916 -49.7916
   -49.3467 -49.3467 -26.6020 -26.5916 -26.5548 -26.5303 -26.5208 -26.4758
   -26.4611 -26.3814 -26.3216 -26.2873 -26.2718 -26.2710 -26.2694 -26.2344
   -26.2205 -26.1862 -26.1719 -26.1527 -26.1293 -26.1244 -26.1139 -26.1077
   -25.9864 -25.9864 -25.7387 -25.7387 -25.7114 -25.7114 -25.4896 -25.4896
    -7.9578  -7.9048  -7.8013  -7.7369  -7.6759  -7.5186  -7.3535  -7.2566
    -7.2190   0.6151   0.7871   1.0323   1.2473   1.4053   1.4162   1.5128
     1.6547   1.9810   2.0237   2.3226   2.5332   2.5513   2.6485   2.7409
     2.8223   2.8278   2.9274   2.9806   3.1835   3.3017   3.5455   3.7606
     3.9363   4.2048   4.2189   4.3982   5.3317   5.7543   6.2779   6.8088
     7.3779   7.4852   7.5192   8.0730   8.6484   8.8170   8.9043   8.9422
     8.9554   9.0448   9.0827   9.1805   9.2053   9.2815   9.4093   9.4964
     9.5165   9.5225   9.5509   9.6759   9.7006   9.8178   9.8827   9.9597
    10.0143  10.0178  10.0764  10.1230  10.1442  10.1580  10.3692  10.7328
    11.2262  11.2300  11.3901  11.5941  11.6621  11.7203  11.7867  11.8282

     occupation numbers 
     1.0000   1.0000   1.0000   1.0000   1.0000   1.0000   1.0000   1.0000
     1.0000   1.0000   1.0000   1.0000   1.0000   1.0000   1.0000   1.0000
     1.0000   1.0000   1.0000   1.0000   1.0000   1.0000   1.0000   1.0000
     1.0000   1.0000   1.0000   1.0000   1.0000   1.0000   1.0000   1.0000
     1.0000   1.0000   1.0000   1.0000   1.0000   1.0000   1.0000   1.0000
     1.0000   1.0000   1.0000   1.0000   1.0000   1.0000   1.0000   1.0000
     1.0000   1.0000   1.0000   1.0000   1.0000   1.0000   1.0000   1.0000
     1.0000   1.0000   1.0000   1.0000   1.0000   1.0000   1.0000   1.0000
     1.0000   1.0000   1.0000   1.0000   1.0000   1.0000   1.0000   1.0000
     1.0000   1.0000   1.0000   1.0000   1.0000   1.0000   1.0000   1.0000
     1.0014   1.0234   1.0427   0.0002   0.0000   0.0000   0.0000   0.0000
     0.0000   0.0000   0.0000   0.0000   0.0000   0.0000   0.0000   0.0000
     0.0000   0.0000   0.0000   0.0000   0.0000   0.0000   0.0000   0.0000
     0.0000   0.0000   0.0000   0.0000   0.0000   0.0000   0.0000   0.0000
     0.0000   0.0000   0.0000   0.0000   0.0000   0.0000   0.0000   0.0000

          k = 0.0000 0.4811 0.0000 ( 17374 PWs)   bands (ev):

   -50.0545 -50.0545 -49.9849 -49.9667 -49.9359 -49.9346 -49.7797 -49.7797
   -49.3358 -49.3358 -26.6847 -26.6731 -26.6228 -26.5749 -26.5572 -26.5438
   -26.4376 -26.4185 -26.3515 -26.3150 -26.2932 -26.2921 -26.2814 -26.2527
   -26.2429 -26.1978 -26.1907 -26.1577 -26.1400 -26.1347 -26.1236 -26.1211
   -26.0052 -26.0052 -25.8023 -25.8023 -25.7145 -25.7145 -25.5069 -25.5069
    -7.8776  -7.8079  -7.6895  -7.6120  -7.5242  -7.3367  -7.1538  -7.0485
    -7.0046   0.0368   0.2430   0.5475   0.8479   1.1443   1.4508   1.7080
     1.8960   1.9978   2.2775   2.3683   2.4006   2.4349   2.4890   2.5314
     2.5475   2.7329   2.7402   2.9142   3.1460   3.1682   3.5354   3.6693
     3.9514   4.1718   4.2538   4.4480   4.9818   5.5006   6.0623   6.6190
     7.2423   7.7978   7.8100   7.9469   8.5849   9.0558   9.2885   9.3170
     9.3433   9.3751   9.4181   9.4585   9.5909   9.6108   9.6673   9.6707
     9.7507   9.8186   9.8739   9.9248   9.9332   9.9528  10.0409  10.0602
    10.1396  10.1448  10.1747  10.2053  10.2075  10.2784  10.4360  10.7191
    11.1867  11.4417  11.4904  11.5959  11.7370  11.8057  12.0876  12.2777

     occupation numbers 
     1.0000   1.0000   1.0000   1.0000   1.0000   1.0000   1.0000   1.0000
     1.0000   1.0000   1.0000   1.0000   1.0000   1.0000   1.0000   1.0000
     1.0000   1.0000   1.0000   1.0000   1.0000   1.0000   1.0000   1.0000
     1.0000   1.0000   1.0000   1.0000   1.0000   1.0000   1.0000   1.0000
     1.0000   1.0000   1.0000   1.0000   1.0000   1.0000   1.0000   1.0000
     1.0000   1.0000   1.0000   1.0000   1.0000   1.0000   1.0000   1.0000
     1.0000   1.0000   1.0000   1.0000   1.0000   1.0000   1.0000   1.0000
     1.0000   1.0000   1.0000   1.0000   1.0000   1.0000   1.0000   1.0000
     1.0000   1.0000   1.0000   1.0000   1.0000   1.0000   1.0000   1.0000
     1.0000   1.0000   1.0000   1.0000   1.0000   1.0000   1.0000   1.0000
     1.0000   0.3576   0.3014   0.0163   0.0000   0.0000   0.0000   0.0000
     0.0000   0.0000   0.0000   0.0000   0.0000   0.0000   0.0000   0.0000
     0.0000   0.0000   0.0000   0.0000   0.0000   0.0000   0.0000   0.0000
     0.0000   0.0000   0.0000   0.0000   0.0000   0.0000   0.0000   0.0000
     0.0000   0.0000   0.0000   0.0000   0.0000   0.0000   0.0000   0.0000

          k = 0.0000-0.5774 0.0000 ( 17314 PWs)   bands (ev):

   -50.0498 -50.0498 -49.9780 -49.9632 -49.9325 -49.9318 -49.7754 -49.7754
   -49.3318 -49.3318 -26.7160 -26.7040 -26.6529 -26.5938 -26.5807 -26.5675
   -26.4446 -26.4385 -26.3211 -26.3061 -26.3010 -26.2998 -26.2833 -26.2797
   -26.2510 -26.2046 -26.1976 -26.1602 -26.1458 -26.1356 -26.1265 -26.1260
   -26.0121 -26.0121 -25.8252 -25.8252 -25.7146 -25.7146 -25.5132 -25.5132
    -7.8917  -7.8094  -7.6758  -7.5801  -7.4686  -7.2536  -7.0469  -6.9264
    -6.8701  -0.2242   0.0056   0.3528   0.7204   1.1026   1.5097   1.7973
     1.9220   1.9668   2.2988   2.3045   2.3421   2.3639   2.4635   2.4798
     2.5459   2.6913   2.7359   2.8856   3.1313   3.1408   3.5348   3.6439
     3.9654   4.1665   4.2800   4.4836   4.8589   5.4241   5.9944   6.5571
     7.1873   7.8767   7.9583   7.9668   8.5531   9.0795   9.4404   9.4821
     9.4921   9.5203   9.5381   9.6283   9.6826   9.6829   9.7091   9.7677
     9.8679   9.8961  10.0356  10.0433  10.0671  10.0952  10.1072  10.1100
    10.1655  10.1736  10.1879  10.2803  10.2834  10.4611  10.4867  10.6162
    11.1224  11.4185  11.5094  11.6846  11.6902  11.9664  12.2448  12.3091

     occupation numbers 
     1.0000   1.0000   1.0000   1.0000   1.0000   1.0000   1.0000   1.0000
     1.0000   1.0000   1.0000   1.0000   1.0000   1.0000   1.0000   1.0000
     1.0000   1.0000   1.0000   1.0000   1.0000   1.0000   1.0000   1.0000
     1.0000   1.0000   1.0000   1.0000   1.0000   1.0000   1.0000   1.0000
     1.0000   1.0000   1.0000   1.0000   1.0000   1.0000   1.0000   1.0000
     1.0000   1.0000   1.0000   1.0000   1.0000   1.0000   1.0000   1.0000
     1.0000   1.0000   1.0000   1.0000   1.0000   1.0000   1.0000   1.0000
     1.0000   1.0000   1.0000   1.0000   1.0000   1.0000   1.0000   1.0000
     1.0000   1.0000   1.0000   1.0000   1.0000   1.0000   1.0000   1.0000
     1.0000   1.0000   1.0000   1.0000   1.0000   1.0000   1.0000   1.0000
     1.0000   0.0922   0.0118   0.0091   0.0000   0.0000   0.0000   0.0000
     0.0000   0.0000   0.0000   0.0000   0.0000   0.0000   0.0000   0.0000
     0.0000   0.0000   0.0000   0.0000   0.0000   0.0000   0.0000   0.0000
     0.0000   0.0000   0.0000   0.0000   0.0000   0.0000   0.0000   0.0000
     0.0000   0.0000   0.0000   0.0000   0.0000   0.0000   0.0000   0.0000

          k = 0.0833 0.1443 0.0000 ( 17259 PWs)   bands (ev):

   -50.1064 -50.1063 -50.0489 -50.0132 -49.9748 -49.9669 -49.8277 -49.8277
   -49.3798 -49.3798 -26.6532 -26.6117 -26.5311 -26.4121 -26.3307 -26.2864
   -26.2378 -26.2256 -26.2145 -26.2074 -26.1994 -26.1904 -26.1585 -26.1462
   -26.1301 -26.1282 -26.1051 -26.0979 -26.0795 -26.0759 -25.9989 -25.9987
   -25.9307 -25.9307 -25.7297 -25.7297 -25.5006 -25.5006 -25.4382 -25.4382
    -8.9301  -8.7851  -8.5573  -8.3337  -8.0999  -7.7718  -7.4406  -7.2081
    -7.0625   0.2370   0.4855   0.8445   1.2467   1.7140   2.1720   2.3590
     2.4426   2.5349   2.5788   2.6023   2.7884   2.8949   2.9387   3.1077
     3.2429   3.3233   3.5980   3.7270   3.8153   4.0826   4.1707   4.3056
     4.5429   4.5650   4.6042   4.8344   6.8993   6.9416   7.0471   7.1685
     7.2315   7.4819   7.5006   7.6269   7.7687   8.0135   8.0158   8.1119
     8.2867   8.2957   8.3657   8.5450   8.6365   8.6425   8.8381   8.9270
     8.9298   9.0569   9.1104   9.2227   9.2238   9.3121   9.4219   9.5262
     9.5593   9.5765   9.6057   9.6729   9.7268   9.8492   9.9228  10.0048
    10.1356  10.2162  10.5371  10.6242  10.8774  10.9996  11.4503  11.5522

     occupation numbers 
     1.0000   1.0000   1.0000   1.0000   1.0000   1.0000   1.0000   1.0000
     1.0000   1.0000   1.0000   1.0000   1.0000   1.0000   1.0000   1.0000
     1.0000   1.0000   1.0000   1.0000   1.0000   1.0000   1.0000   1.0000
     1.0000   1.0000   1.0000   1.0000   1.0000   1.0000   1.0000   1.0000
     1.0000   1.0000   1.0000   1.0000   1.0000   1.0000   1.0000   1.0000
     1.0000   1.0000   1.0000   1.0000   1.0000   1.0000   1.0000   1.0000
     1.0000   1.0000   1.0000   1.0000   1.0000   1.0000   1.0000   1.0000
     1.0000   1.0000   1.0000   1.0000   1.0000   1.0000   1.0000   1.0000
     1.0000   1.0000   1.0000   1.0000   1.0000   1.0000   1.0000   1.0000
     1.0000   1.0000   1.0000   1.0000   1.0000   1.0000   1.0000   1.0000
     1.0000   1.0219   1.0314   1.0688   0.5071   0.0020   0.0018   0.0000
     0.0000   0.0000   0.0000   0.0000   0.0000   0.0000   0.0000   0.0000
     0.0000   0.0000   0.0000   0.0000   0.0000   0.0000   0.0000   0.0000
     0.0000   0.0000   0.0000   0.0000   0.0000   0.0000   0.0000   0.0000
     0.0000   0.0000   0.0000   0.0000   0.0000   0.0000   0.0000   0.0000

          k = 0.0833 0.2406 0.0000 ( 17323 PWs)   bands (ev):

   -50.0913 -50.0912 -50.0314 -49.9992 -49.9632 -49.9571 -49.8137 -49.8137
   -49.3670 -49.3670 -26.6001 -26.5729 -26.5157 -26.4451 -26.4122 -26.3744
   -26.3169 -26.2809 -26.2592 -26.2387 -26.2263 -26.2232 -26.2045 -26.1887
   -26.1674 -26.1534 -26.1356 -26.1214 -26.0996 -26.0954 -26.0773 -26.0726
   -25.9583 -25.9583 -25.7231 -25.7231 -25.5886 -25.5886 -25.4629 -25.4628
    -8.5306  -8.4182  -8.2389  -8.0812  -7.9237  -7.6774  -7.4327  -7.2789
    -7.1937   0.7228   0.8654   1.0584   1.2668   1.5388   1.8168   2.0157
     2.2157   2.3843   2.4098   2.6196   2.7106   2.7425   2.7795   2.9151
     3.0397   3.0836   3.2337   3.3551   3.5558   3.6468   3.7617   3.9329
     3.9817   4.1518   4.2070   4.3253   6.5007   6.6934   7.0065   7.1325
     7.1653   7.4341   7.5335   7.8022   7.8715   8.0075   8.2168   8.4295
     8.5200   8.6009   8.6664   8.7623   8.8439   8.8784   9.0176   9.0954
     9.2561   9.3598   9.3880   9.4636   9.5065   9.5755   9.6652   9.7403
     9.7525   9.7654   9.8563   9.9034   9.9888   9.9960  10.0445  10.2473
    10.3460  10.5665  10.8560  11.1586  11.2277  11.3880  11.5239  11.6556

     occupation numbers 
     1.0000   1.0000   1.0000   1.0000   1.0000   1.0000   1.0000   1.0000
     1.0000   1.0000   1.0000   1.0000   1.0000   1.0000   1.0000   1.0000
     1.0000   1.0000   1.0000   1.0000   1.0000   1.0000   1.0000   1.0000
     1.0000   1.0000   1.0000   1.0000   1.0000   1.0000   1.0000   1.0000
     1.0000   1.0000   1.0000   1.0000   1.0000   1.0000   1.0000   1.0000
     1.0000   1.0000   1.0000   1.0000   1.0000   1.0000   1.0000   1.0000
     1.0000   1.0000   1.0000   1.0000   1.0000   1.0000   1.0000   1.0000
     1.0000   1.0000   1.0000   1.0000   1.0000   1.0000   1.0000   1.0000
     1.0000   1.0000   1.0000   1.0000   1.0000   1.0000   1.0000   1.0000
     1.0000   1.0000   1.0000   1.0000   1.0000   1.0000   1.0000   1.0000
     1.0000   1.0072   1.0524   0.3365   0.1027   0.0024   0.0000   0.0000
     0.0000   0.0000   0.0000   0.0000   0.0000   0.0000   0.0000   0.0000
     0.0000   0.0000   0.0000   0.0000   0.0000   0.0000   0.0000   0.0000
     0.0000   0.0000   0.0000   0.0000   0.0000   0.0000   0.0000   0.0000
     0.0000   0.0000   0.0000   0.0000   0.0000   0.0000   0.0000   0.0000

          k = 0.0833 0.3368 0.0000 ( 17369 PWs)   bands (ev):

   -50.0738 -50.0738 -50.0102 -49.9833 -49.9500 -49.9461 -49.7976 -49.7976
   -49.3522 -49.3522 -26.5596 -26.5508 -26.5364 -26.5101 -26.4933 -26.4706
   -26.4210 -26.3575 -26.3015 -26.2760 -26.2756 -26.2463 -26.2363 -26.2298
   -26.2093 -26.1830 -26.1696 -26.1464 -26.1349 -26.1235 -26.1144 -26.0978
   -25.9898 -25.9897 -25.7206 -25.7206 -25.6844 -25.6844 -25.4912 -25.4912
    -8.0673  -8.0018  -7.8852  -7.8071  -7.7354  -7.5741  -7.4099  -7.3166
    -7.2810   0.9136   1.0541   1.2488   1.3666   1.4108   1.4715   1.6216
     1.7405   1.9566   1.9658   2.3803   2.6051   2.6555   2.7175   2.8456
     2.9015   2.9372   3.0271   3.1219   3.2190   3.3165   3.4576   3.6878
     3.7208   3.8823   3.9313   4.0850   6.0244   6.2747   6.6843   7.1427
     7.3248   7.3330   7.6843   8.0210   8.2242   8.2631   8.4804   8.5896
     8.8271   8.8811   9.0812   9.1658   9.1893   9.2454   9.2964   9.3589
     9.4116   9.4736   9.5238   9.6894   9.6945   9.7726   9.8812   9.9483
     9.9801  10.0124  10.0536  10.0768  10.1248  10.1546  10.3148  10.5943
    10.9695  10.9843  11.1628  11.3757  11.3971  11.7349  11.8797  11.9055

     occupation numbers 
     1.0000   1.0000   1.0000   1.0000   1.0000   1.0000   1.0000   1.0000
     1.0000   1.0000   1.0000   1.0000   1.0000   1.0000   1.0000   1.0000
     1.0000   1.0000   1.0000   1.0000   1.0000   1.0000   1.0000   1.0000
     1.0000   1.0000   1.0000   1.0000   1.0000   1.0000   1.0000   1.0000
     1.0000   1.0000   1.0000   1.0000   1.0000   1.0000   1.0000   1.0000
     1.0000   1.0000   1.0000   1.0000   1.0000   1.0000   1.0000   1.0000
     1.0000   1.0000   1.0000   1.0000   1.0000   1.0000   1.0000   1.0000
     1.0000   1.0000   1.0000   1.0000   1.0000   1.0000   1.0000   1.0000
     1.0000   1.0000   1.0000   1.0000   1.0000   1.0000   1.0000   1.0000
     1.0000   1.0000   1.0000   1.0000   1.0000   1.0000   1.0000   1.0000
     1.0002   1.0003   0.9325   0.0015   0.0000   0.0000   0.0000   0.0000
     0.0000   0.0000   0.0000   0.0000   0.0000   0.0000   0.0000   0.0000
     0.0000   0.0000   0.0000   0.0000   0.0000   0.0000   0.0000   0.0000
     0.0000   0.0000   0.0000   0.0000   0.0000   0.0000   0.0000   0.0000
     0.0000   0.0000   0.0000   0.0000   0.0000   0.0000   0.0000   0.0000

          k = 0.0833 0.4330 0.0000 ( 17416 PWs)   bands (ev):

   -50.0586 -50.0586 -49.9906 -49.9700 -49.9388 -49.9370 -49.7835 -49.7835
   -49.3393 -49.3393 -26.6398 -26.6297 -26.5817 -26.5502 -26.5297 -26.5123
   -26.4457 -26.3979 -26.3444 -26.3183 -26.3036 -26.2884 -26.2738 -26.2482
   -26.2365 -26.2127 -26.1764 -26.1660 -26.1449 -26.1371 -26.1283 -26.1147
   -26.0163 -26.0163 -25.7694 -25.7694 -25.7136 -25.7136 -25.5155 -25.5155
    -7.8235  -7.7742  -7.6787  -7.6274  -7.5728  -7.4225  -7.2717  -7.1849
    -7.1585   0.4081   0.5826   0.8336   1.0503   1.2298   1.4114   1.6179
     1.8280   2.0340   2.1967   2.3636   2.4215   2.5184   2.5979   2.6642
     2.7136   2.7658   2.8037   2.8910   3.0413   3.1807   3.3290   3.5808
     3.6459   3.7679   3.8270   4.0654   5.6966   5.9777   6.4289   6.9234
     7.4826   7.6275   7.6471   8.1316   8.6250   8.6723   8.7976   8.9801
     9.0587   9.2000   9.2684   9.4201   9.4403   9.5094   9.5907   9.6764
     9.7131   9.7579   9.8074   9.8672   9.9048   9.9382  10.0121  10.1010
    10.1299  10.1605  10.1660  10.1755  10.2059  10.2714  10.4675  10.7367
    11.0716  11.3294  11.5003  11.6243  11.6482  11.7503  11.9325  12.0716

     occupation numbers 
     1.0000   1.0000   1.0000   1.0000   1.0000   1.0000   1.0000   1.0000
     1.0000   1.0000   1.0000   1.0000   1.0000   1.0000   1.0000   1.0000
     1.0000   1.0000   1.0000   1.0000   1.0000   1.0000   1.0000   1.0000
     1.0000   1.0000   1.0000   1.0000   1.0000   1.0000   1.0000   1.0000
     1.0000   1.0000   1.0000   1.0000   1.0000   1.0000   1.0000   1.0000
     1.0000   1.0000   1.0000   1.0000   1.0000   1.0000   1.0000   1.0000
     1.0000   1.0000   1.0000   1.0000   1.0000   1.0000   1.0000   1.0000
     1.0000   1.0000   1.0000   1.0000   1.0000   1.0000   1.0000   1.0000
     1.0000   1.0000   1.0000   1.0000   1.0000   1.0000   1.0000   1.0000
     1.0000   1.0000   1.0000   1.0000   1.0000   1.0000   1.0000   1.0000
     1.0222   1.0682   1.0389   0.0000   0.0000   0.0000   0.0000   0.0000
     0.0000   0.0000   0.0000   0.0000   0.0000   0.0000   0.0000   0.0000
     0.0000   0.0000   0.0000   0.0000   0.0000   0.0000   0.0000   0.0000
     0.0000   0.0000   0.0000   0.0000   0.0000   0.0000   0.0000   0.0000
     0.0000   0.0000   0.0000   0.0000   0.0000   0.0000   0.0000   0.0000

          k = 0.0833-0.6255 0.0000 ( 17393 PWs)   bands (ev):

   -50.0498 -50.0498 -49.9780 -49.9632 -49.9325 -49.9318 -49.7754 -49.7754
   -49.3319 -49.3319 -26.6963 -26.6849 -26.6345 -26.5791 -26.5654 -26.5542
   -26.4346 -26.4257 -26.3372 -26.3222 -26.3177 -26.3025 -26.2850 -26.2736
   -26.2525 -26.2281 -26.1858 -26.1746 -26.1495 -26.1438 -26.1302 -26.1263
   -26.0314 -26.0313 -25.8121 -25.8121 -25.7136 -25.7136 -25.5294 -25.5294
    -7.8315  -7.7592  -7.6391  -7.5603  -7.4672  -7.2737  -7.0891  -6.9849
    -6.9426  -0.0457   0.1642   0.4807   0.8081   1.1447   1.5054   1.7808
     1.9282   1.9851   2.3162   2.3391   2.4029   2.4115   2.4806   2.5111
     2.5636   2.6693   2.7375   2.8167   3.0028   3.1217   3.3126   3.5237
     3.6591   3.7253   3.7932   4.1020   5.5484   5.8403   6.3056   6.8108
     7.3965   7.8837   7.8865   8.0443   8.6395   9.0600   9.2258   9.3031
     9.3418   9.4001   9.4752   9.5210   9.5684   9.6642   9.7733   9.8104
     9.8989   9.9413   9.9772  10.0093  10.0276  10.0765  10.0945  10.1463
    10.1599  10.1732  10.2212  10.2287  10.3127  10.4188  10.5266  10.7274
    11.0554  11.4590  11.4864  11.5618  11.7603  11.9153  12.1042  12.3053

     occupation numbers 
     1.0000   1.0000   1.0000   1.0000   1.0000   1.0000   1.0000   1.0000
     1.0000   1.0000   1.0000   1.0000   1.0000   1.0000   1.0000   1.0000
     1.0000   1.0000   1.0000   1.0000   1.0000   1.0000   1.0000   1.0000
     1.0000   1.0000   1.0000   1.0000   1.0000   1.0000   1.0000   1.0000
     1.0000   1.0000   1.0000   1.0000   1.0000   1.0000   1.0000   1.0000
     1.0000   1.0000   1.0000   1.0000   1.0000   1.0000   1.0000   1.0000
     1.0000   1.0000   1.0000   1.0000   1.0000   1.0000   1.0000   1.0000
     1.0000   1.0000   1.0000   1.0000   1.0000   1.0000   1.0000   1.0000
     1.0000   1.0000   1.0000   1.0000   1.0000   1.0000   1.0000   1.0000
     1.0000   1.0000   1.0000   1.0000   1.0000   1.0000   1.0000   1.0000
     1.0024   0.0793   0.0745   0.0006   0.0000   0.0000   0.0000   0.0000
     0.0000   0.0000   0.0000   0.0000   0.0000   0.0000   0.0000   0.0000
     0.0000   0.0000   0.0000   0.0000   0.0000   0.0000   0.0000   0.0000
     0.0000   0.0000   0.0000   0.0000   0.0000   0.0000   0.0000   0.0000
     0.0000   0.0000   0.0000   0.0000   0.0000   0.0000   0.0000   0.0000

          k = 0.1667 0.2887 0.0000 ( 17381 PWs)   bands (ev):

   -50.0761 -50.0761 -50.0131 -49.9854 -49.9517 -49.9475 -49.7997 -49.7997
   -49.3542 -49.3542 -26.5507 -26.5470 -26.5167 -26.4907 -26.4826 -26.4532
   -26.4080 -26.3422 -26.3054 -26.2774 -26.2751 -26.2424 -26.2204 -26.2184
   -26.1992 -26.1698 -26.1685 -26.1587 -26.1451 -26.1300 -26.1101 -26.0927
   -26.0003 -26.0003 -25.7187 -25.7187 -25.6620 -25.6620 -25.4991 -25.4991
    -8.1117  -8.0392  -7.9151  -7.8300  -7.7521  -7.5887  -7.4278  -7.3404
    -7.3096   1.1771   1.1877   1.2470   1.2578   1.3430   1.5395   1.7332
     1.8913   1.9918   2.0122   2.4448   2.6928   2.7665   2.8212   2.9001
     2.9447   2.9977   3.0430   3.1932   3.2175   3.2873   3.3397   3.3803
     3.5943   3.6932   3.7340   3.7499   6.7933   6.8332   7.0056   7.1053
     7.2471   7.3348   7.6304   7.6567   8.0067   8.1681   8.2587   8.3325
     8.6404   8.8927   9.0505   9.1451   9.1770   9.2056   9.3411   9.3789
     9.4444   9.5162   9.5528   9.6520   9.6980   9.7366   9.8783   9.9516
     9.9795  10.0474  10.0925  10.1065  10.1396  10.3759  10.5252  10.5848
    10.6130  10.6285  10.7732  11.0083  11.2851  11.8514  11.8833  12.1000

     occupation numbers 
     1.0000   1.0000   1.0000   1.0000   1.0000   1.0000   1.0000   1.0000
     1.0000   1.0000   1.0000   1.0000   1.0000   1.0000   1.0000   1.0000
     1.0000   1.0000   1.0000   1.0000   1.0000   1.0000   1.0000   1.0000
     1.0000   1.0000   1.0000   1.0000   1.0000   1.0000   1.0000   1.0000
     1.0000   1.0000   1.0000   1.0000   1.0000   1.0000   1.0000   1.0000
     1.0000   1.0000   1.0000   1.0000   1.0000   1.0000   1.0000   1.0000
     1.0000   1.0000   1.0000   1.0000   1.0000   1.0000   1.0000   1.0000
     1.0000   1.0000   1.0000   1.0000   1.0000   1.0000   1.0000   1.0000
     1.0000   1.0000   1.0000   1.0000   1.0000   1.0000   1.0000   1.0000
     1.0000   1.0000   1.0000   1.0000   1.0000   1.0000   1.0000   1.0000
     1.0000   1.0003   1.0649   1.0181   0.0025   0.0000   0.0000   0.0000
     0.0000   0.0000   0.0000   0.0000   0.0000   0.0000   0.0000   0.0000
     0.0000   0.0000   0.0000   0.0000   0.0000   0.0000   0.0000   0.0000
     0.0000   0.0000   0.0000   0.0000   0.0000   0.0000   0.0000   0.0000
     0.0000   0.0000   0.0000   0.0000   0.0000   0.0000   0.0000   0.0000

          k = 0.1667 0.3849 0.0000 ( 17421 PWs)   bands (ev):

   -50.0610 -50.0610 -49.9938 -49.9720 -49.9405 -49.9383 -49.7857 -49.7857
   -49.3413 -49.3413 -26.5866 -26.5817 -26.5392 -26.5268 -26.5036 -26.4943
   -26.4616 -26.3849 -26.3365 -26.3318 -26.3254 -26.2655 -26.2585 -26.2463
   -26.2322 -26.2208 -26.1957 -26.1771 -26.1690 -26.1388 -26.1253 -26.1112
   -26.0443 -26.0442 -25.7317 -25.7317 -25.7139 -25.7138 -25.5384 -25.5384
    -7.7189  -7.6963  -7.6290  -7.6099  -7.5922  -7.4932  -7.3999  -7.3235
    -7.3203   0.8992   1.0235   1.1923   1.2372   1.2741   1.3489   1.5278
     1.7319   2.0727   2.1433   2.4555   2.5488   2.6219   2.6856   2.7141
     2.7379   2.7947   2.8510   2.9675   3.0106   3.0616   3.1198   3.1305
     3.1711   3.2655   3.4359   3.6411   6.5815   6.6838   7.0088   7.3295
     7.4054   7.5268   7.7575   7.9683   8.0620   8.3626   8.5703   8.6922
     8.7184   9.0155   9.2066   9.3275   9.4869   9.5144   9.5677   9.6093
     9.6555   9.7040   9.7447   9.7913   9.8761  10.0037  10.0687  10.1106
    10.1417  10.1607  10.2404  10.2415  10.4846  10.6033  10.6617  10.8267
    10.9728  11.0564  11.1705  11.3166  11.4683  11.8078  11.9044  12.0159

     occupation numbers 
     1.0000   1.0000   1.0000   1.0000   1.0000   1.0000   1.0000   1.0000
     1.0000   1.0000   1.0000   1.0000   1.0000   1.0000   1.0000   1.0000
     1.0000   1.0000   1.0000   1.0000   1.0000   1.0000   1.0000   1.0000
     1.0000   1.0000   1.0000   1.0000   1.0000   1.0000   1.0000   1.0000
     1.0000   1.0000   1.0000   1.0000   1.0000   1.0000   1.0000   1.0000
     1.0000   1.0000   1.0000   1.0000   1.0000   1.0000   1.0000   1.0000
     1.0000   1.0000   1.0000   1.0000   1.0000   1.0000   1.0000   1.0000
     1.0000   1.0000   1.0000   1.0000   1.0000   1.0000   1.0000   1.0000
     1.0000   1.0000   1.0000   1.0000   1.0000   1.0000   1.0000   1.0000
     1.0000   1.0000   1.0000   1.0000   1.0000   1.0000   1.0000   1.0002
     1.0032   1.0478   0.5689   0.0087   0.0003   0.0000   0.0000   0.0000
     0.0000   0.0000   0.0000   0.0000   0.0000   0.0000   0.0000   0.0000
     0.0000   0.0000   0.0000   0.0000   0.0000   0.0000   0.0000   0.0000
     0.0000   0.0000   0.0000   0.0000   0.0000   0.0000   0.0000   0.0000
     0.0000   0.0000   0.0000   0.0000   0.0000   0.0000   0.0000   0.0000

          k = 0.1667-0.6736 0.0000 ( 17428 PWs)   bands (ev):

   -50.0498 -50.0498 -49.9782 -49.9631 -49.9325 -49.9318 -49.7754 -49.7754
   -49.3319 -49.3319 -26.6458 -26.6369 -26.5891 -26.5483 -26.5363 -26.5217
   -26.4262 -26.4067 -26.3717 -26.3630 -26.3417 -26.2965 -26.2943 -26.2689
   -26.2639 -26.2383 -26.2131 -26.1900 -26.1731 -26.1427 -26.1309 -26.1283
   -26.0752 -26.0750 -25.7788 -25.7788 -25.7127 -25.7127 -25.5680 -25.5680
    -7.6661  -7.6244  -7.5435  -7.5103  -7.4638  -7.3288  -7.2063  -7.1311
    -7.1217   0.4196   0.5743   0.8042   1.0145   1.2191   1.4695   1.7238
     1.9336   2.0612   2.3209   2.3449   2.4254   2.5171   2.5581   2.6356
     2.6634   2.6928   2.7475   2.7569   2.7761   2.8398   2.9226   3.0107
     3.0265   3.0801   3.4033   3.6870   6.4143   6.5443   6.8906   7.3259
     7.6766   7.7192   7.9076   8.4114   8.4459   8.6303   8.8487   8.9484
     9.0516   9.1401   9.2999   9.4315   9.5412   9.5843   9.6897   9.7737
     9.8054   9.8499   9.9015   9.9520  10.0129  10.0576  10.1226  10.1600
    10.1724  10.1756  10.3854  10.3855  10.5791  10.6011  10.7352  10.9413
    11.1163  11.2772  11.4933  11.5929  11.6719  11.8209  11.8958  12.1244

     occupation numbers 
     1.0000   1.0000   1.0000   1.0000   1.0000   1.0000   1.0000   1.0000
     1.0000   1.0000   1.0000   1.0000   1.0000   1.0000   1.0000   1.0000
     1.0000   1.0000   1.0000   1.0000   1.0000   1.0000   1.0000   1.0000
     1.0000   1.0000   1.0000   1.0000   1.0000   1.0000   1.0000   1.0000
     1.0000   1.0000   1.0000   1.0000   1.0000   1.0000   1.0000   1.0000
     1.0000   1.0000   1.0000   1.0000   1.0000   1.0000   1.0000   1.0000
     1.0000   1.0000   1.0000   1.0000   1.0000   1.0000   1.0000   1.0000
     1.0000   1.0000   1.0000   1.0000   1.0000   1.0000   1.0000   1.0000
     1.0000   1.0000   1.0000   1.0000   1.0000   1.0000   1.0000   1.0000
     1.0000   1.0000   1.0000   1.0000   1.0000   1.0000   1.0000   1.0002
     0.9601   0.7758   0.0457   0.0000   0.0000   0.0000   0.0000   0.0000
     0.0000   0.0000   0.0000   0.0000   0.0000   0.0000   0.0000   0.0000
     0.0000   0.0000   0.0000   0.0000   0.0000   0.0000   0.0000   0.0000
     0.0000   0.0000   0.0000   0.0000   0.0000   0.0000   0.0000   0.0000
     0.0000   0.0000   0.0000   0.0000   0.0000   0.0000   0.0000   0.0000

          k = 0.1667-0.5774 0.0000 ( 17399 PWs)   bands (ev):

   -50.0457 -50.0457 -49.9716 -49.9605 -49.9297 -49.9294 -49.7716 -49.7716
   -49.3284 -49.3284 -26.6689 -26.6585 -26.6095 -26.5548 -26.5460 -26.5362
   -26.4233 -26.4191 -26.3740 -26.3717 -26.3385 -26.3270 -26.3029 -26.2722
   -26.2617 -26.2528 -26.2105 -26.2018 -26.1713 -26.1529 -26.1314 -26.1310
   -26.0859 -26.0859 -25.7961 -25.7961 -25.7120 -25.7119 -25.5789 -25.5789
    -7.6879  -7.6324  -7.5359  -7.4853  -7.4176  -7.2548  -7.1050  -7.0221
    -7.0015   0.2114   0.3891   0.6607   0.9390   1.2284   1.5530   1.8067
     1.9422   2.0005   2.3362   2.3799   2.4113   2.4573   2.5060   2.5490
     2.5800   2.6094   2.6534   2.7232   2.7532   2.8429   2.8603   2.9533
     2.9892   3.0839   3.4160   3.7195   6.3615   6.4992   6.8488   7.2909
     7.7690   7.8512   7.9154   8.3933   8.8456   9.0683   9.0718   9.0971
     9.1029   9.3274   9.3558   9.4558   9.4872   9.5072   9.6162   9.7417
     9.8500   9.9084   9.9202   9.9592  10.0047  10.0308  10.1151  10.1629
    10.1661  10.1710  10.4582  10.4583  10.5599  10.6153  10.7745  10.9848
    11.1294  11.2873  11.5107  11.5828  11.6992  11.9116  11.9773  12.2310

     occupation numbers 
     1.0000   1.0000   1.0000   1.0000   1.0000   1.0000   1.0000   1.0000
     1.0000   1.0000   1.0000   1.0000   1.0000   1.0000   1.0000   1.0000
     1.0000   1.0000   1.0000   1.0000   1.0000   1.0000   1.0000   1.0000
     1.0000   1.0000   1.0000   1.0000   1.0000   1.0000   1.0000   1.0000
     1.0000   1.0000   1.0000   1.0000   1.0000   1.0000   1.0000   1.0000
     1.0000   1.0000   1.0000   1.0000   1.0000   1.0000   1.0000   1.0000
     1.0000   1.0000   1.0000   1.0000   1.0000   1.0000   1.0000   1.0000
     1.0000   1.0000   1.0000   1.0000   1.0000   1.0000   1.0000   1.0000
     1.0000   1.0000   1.0000   1.0000   1.0000   1.0000   1.0000   1.0000
     1.0000   1.0000   1.0000   1.0000   1.0000   1.0000   1.0000   1.0001
     0.5054   0.1528   0.0377   0.0000   0.0000   0.0000   0.0000   0.0000
     0.0000   0.0000   0.0000   0.0000   0.0000   0.0000   0.0000   0.0000
     0.0000   0.0000   0.0000   0.0000   0.0000   0.0000   0.0000   0.0000
     0.0000   0.0000   0.0000   0.0000   0.0000   0.0000   0.0000   0.0000
     0.0000   0.0000   0.0000   0.0000   0.0000   0.0000   0.0000   0.0000

          k = 0.2500-0.7217 0.0000 ( 17473 PWs)   bands (ev):

   -50.0499 -50.0498 -49.9782 -49.9631 -49.9325 -49.9318 -49.7754 -49.7754
   -49.3319 -49.3319 -26.6051 -26.6016 -26.5584 -26.5442 -26.5301 -26.4893
   -26.4428 -26.4129 -26.3880 -26.3758 -26.3578 -26.2898 -26.2856 -26.2787
   -26.2530 -26.2488 -26.2300 -26.2094 -26.1748 -26.1420 -26.1337 -26.1334
   -26.0999 -26.0989 -25.7548 -25.7548 -25.7141 -25.7141 -25.5927 -25.5927
    -7.4940  -7.4938  -7.4729  -7.4729  -7.4322  -7.3978  -7.3752  -7.2403
    -7.2403   0.8625   0.8942   0.9939   1.0951   1.2100   1.4170   1.6726
     1.9290   2.1846   2.3332   2.3514   2.4120   2.4396   2.4613   2.5111
     2.5123   2.5846   2.6485   2.6556   2.7057   2.7654   2.9080   2.9173
     3.0598   3.0964   3.1719   3.2041   7.0383   7.0449   7.4161   7.4510
     7.5881   7.6543   7.9027   7.9926   8.3087   8.4210   8.6572   8.9291
     8.9937   9.0290   9.2381   9.4928   9.5320   9.5541   9.6774   9.6934
     9.6993   9.7861   9.8215   9.8931  10.0003  10.0819  10.1295  10.1445
    10.1582  10.1709  10.3838  10.3839  10.8155  10.9553  11.0028  11.0982
    11.2336  11.3364  11.4447  11.6556  11.6927  11.7212  11.7960  11.8641

     occupation numbers 
     1.0000   1.0000   1.0000   1.0000   1.0000   1.0000   1.0000   1.0000
     1.0000   1.0000   1.0000   1.0000   1.0000   1.0000   1.0000   1.0000
     1.0000   1.0000   1.0000   1.0000   1.0000   1.0000   1.0000   1.0000
     1.0000   1.0000   1.0000   1.0000   1.0000   1.0000   1.0000   1.0000
     1.0000   1.0000   1.0000   1.0000   1.0000   1.0000   1.0000   1.0000
     1.0000   1.0000   1.0000   1.0000   1.0000   1.0000   1.0000   1.0000
     1.0000   1.0000   1.0000   1.0000   1.0000   1.0000   1.0000   1.0000
     1.0000   1.0000   1.0000   1.0000   1.0000   1.0000   1.0000   1.0000
     1.0000   1.0000   1.0000   1.0000   1.0000   1.0000   1.0000   1.0000
     1.0000   1.0000   1.0000   1.0000   1.0000   1.0000   1.0044   1.0110
     1.0824   1.0238   0.0515   0.0040   0.0000   0.0000   0.0000   0.0000
     0.0000   0.0000   0.0000   0.0000   0.0000   0.0000   0.0000   0.0000
     0.0000   0.0000   0.0000   0.0000   0.0000   0.0000   0.0000   0.0000
     0.0000   0.0000   0.0000   0.0000   0.0000   0.0000   0.0000   0.0000
     0.0000   0.0000   0.0000   0.0000   0.0000   0.0000   0.0000   0.0000

          k = 0.2500-0.6255 0.0000 ( 17403 PWs)   bands (ev):

   -50.0434 -50.0434 -49.9675 -49.9595 -49.9281 -49.9279 -49.7695 -49.7695
   -49.3264 -49.3264 -26.6143 -26.6069 -26.5625 -26.5365 -26.5213 -26.4963
   -26.4576 -26.4531 -26.4104 -26.3894 -26.3739 -26.3411 -26.3205 -26.2950
   -26.2535 -26.2457 -26.2323 -26.2097 -26.1873 -26.1708 -26.1545 -26.1519
   -26.1158 -26.1156 -25.7643 -25.7643 -25.7121 -25.7121 -25.6316 -25.6316
    -7.4912  -7.4726  -7.4257  -7.4184  -7.3842  -7.2858  -7.2099  -7.1203
    -7.1197   0.7131   0.8198   0.9866   1.1360   1.2910   1.5018   1.7072
     1.8762   2.0366   2.1104   2.2315   2.2729   2.3312   2.3487   2.3999
     2.4405   2.4910   2.5208   2.6334   2.6804   2.7482   2.7604   2.8242
     2.8439   2.9288   3.1143   3.2537   7.1261   7.1399   7.4788   7.6739
     7.7493   7.9238   8.3156   8.3583   8.5538   8.6881   8.8708   8.9361
     9.1120   9.1843   9.2774   9.3153   9.3556   9.4399   9.4987   9.6354
     9.6876   9.7985   9.8071   9.8891  10.0003  10.0258  10.1044  10.1174
    10.1375  10.1571  10.4547  10.4549  11.0162  11.0456  11.1535  11.1968
    11.3534  11.4171  11.5446  11.6495  11.7181  11.7910  11.9132  11.9541

     occupation numbers 
     1.0000   1.0000   1.0000   1.0000   1.0000   1.0000   1.0000   1.0000
     1.0000   1.0000   1.0000   1.0000   1.0000   1.0000   1.0000   1.0000
     1.0000   1.0000   1.0000   1.0000   1.0000   1.0000   1.0000   1.0000
     1.0000   1.0000   1.0000   1.0000   1.0000   1.0000   1.0000   1.0000
     1.0000   1.0000   1.0000   1.0000   1.0000   1.0000   1.0000   1.0000
     1.0000   1.0000   1.0000   1.0000   1.0000   1.0000   1.0000   1.0000
     1.0000   1.0000   1.0000   1.0000   1.0000   1.0000   1.0000   1.0000
     1.0000   1.0000   1.0000   1.0000   1.0000   1.0000   1.0000   1.0000
     1.0000   1.0000   1.0000   1.0000   1.0000   1.0000   1.0000   1.0000
     1.0000   1.0000   1.0000   1.0000   1.0000   1.0000   1.0206   0.9693
     0.6141   0.0305   0.0000   0.0000   0.0000   0.0000   0.0000   0.0000
     0.0000   0.0000   0.0000   0.0000   0.0000   0.0000   0.0000   0.0000
     0.0000   0.0000   0.0000   0.0000   0.0000   0.0000   0.0000   0.0000
     0.0000   0.0000   0.0000   0.0000   0.0000   0.0000   0.0000   0.0000
     0.0000   0.0000   0.0000   0.0000   0.0000   0.0000   0.0000   0.0000

          k = 0.3333-0.5774 0.0000 ( 17397 PWs)   bands (ev):

   -50.0411 -50.0411 -49.9609 -49.9609 -49.9265 -49.9265 -49.7673 -49.7673
   -49.3244 -49.3244 -26.5549 -26.5549 -26.5530 -26.5436 -26.5156 -26.5156
   -26.4975 -26.4458 -26.4458 -26.3988 -26.3889 -26.3889 -26.3093 -26.3093
   -26.2509 -26.2490 -26.2086 -26.2086 -26.1955 -26.1955 -26.1955 -26.1820
   -26.1156 -26.1156 -25.7447 -25.7447 -25.7121 -25.7121 -25.6702 -25.6702
    -7.3838  -7.3838  -7.3812  -7.3812  -7.3048  -7.2946  -7.2946  -7.1310
    -7.1310   1.2252   1.2295   1.2692   1.2692   1.3216   1.3216   1.3430
     1.3430   1.8746   1.8746   2.2150   2.2442   2.2442   2.2770   2.3380
     2.3380   2.3716   2.3716   2.7847   2.7847   2.8030   2.8399   2.8399
     2.8740   2.8925   2.8925   2.8932   7.3862   7.3862   7.7959   7.7959
     8.3074   8.3505   8.3505   8.4036   8.5498   8.5498   8.5849   8.9469
     8.9469   8.9795   9.1909   9.2460   9.2460   9.4549   9.4549   9.4747
     9.5594   9.7017   9.7017  10.0192  10.0192  10.0345  10.0842  10.0842
    10.1176  10.1319  10.4644  10.4644  11.2495  11.2702  11.2702  11.3379
    11.3814  11.3814  11.4366  11.5513  11.5513  12.2503  12.2503  12.2698

     occupation numbers 
     1.0000   1.0000   1.0000   1.0000   1.0000   1.0000   1.0000   1.0000
     1.0000   1.0000   1.0000   1.0000   1.0000   1.0000   1.0000   1.0000
     1.0000   1.0000   1.0000   1.0000   1.0000   1.0000   1.0000   1.0000
     1.0000   1.0000   1.0000   1.0000   1.0000   1.0000   1.0000   1.0000
     1.0000   1.0000   1.0000   1.0000   1.0000   1.0000   1.0000   1.0000
     1.0000   1.0000   1.0000   1.0000   1.0000   1.0000   1.0000   1.0000
     1.0000   1.0000   1.0000   1.0000   1.0000   1.0000   1.0000   1.0000
     1.0000   1.0000   1.0000   1.0000   1.0000   1.0000   1.0000   1.0000
     1.0000   1.0000   1.0000   1.0000   1.0000   1.0000   1.0000   1.0000
     1.0000   1.0000   1.0000   1.0000   1.0018   1.0018   0.3664   0.3664
     0.0000   0.0000   0.0000   0.0000   0.0000   0.0000   0.0000   0.0000
     0.0000   0.0000   0.0000   0.0000   0.0000   0.0000   0.0000   0.0000
     0.0000   0.0000   0.0000   0.0000   0.0000   0.0000   0.0000   0.0000
     0.0000   0.0000   0.0000   0.0000   0.0000   0.0000   0.0000   0.0000
     0.0000   0.0000   0.0000   0.0000   0.0000   0.0000   0.0000   0.0000

     the Fermi energy is     7.7890 ev

!    total energy              =   -1383.70586853 Ry
     estimated scf accuracy    <          1.4E-10 Ry
     smearing contrib. (-TS)   =      -0.00040531 Ry
     internal energy E=F+TS    =   -1383.70546322 Ry

     The total energy is F=E-TS. E is the sum of the following terms:
     one-electron contribution =  -31121.53340757 Ry
     hartree contribution      =   15598.98348544 Ry
     xc contribution           =    -238.31759554 Ry
     ewald contribution        =   14377.16205445 Ry

     convergence has been achieved in  14 iterations

     negative rho (up, down):  2.202E-04 0.000E+00

     Forces acting on atoms (cartesian axes, Ry/au):

     atom    1 type  1   force =     0.00000000    0.00000000    0.00038655
     atom    2 type  2   force =     0.00000000    0.00000000   -0.00006676
     atom    3 type  1   force =    -0.00000000    0.00000000    0.00035471
     atom    4 type  2   force =     0.00000000    0.00000000   -0.00050496
     atom    5 type  1   force =     0.00000000   -0.00000000   -0.00098360
     atom    6 type  2   force =    -0.00000000   -0.00000000   -0.00062011
     atom    7 type  1   force =     0.00000000   -0.00000000   -0.00749292
     atom    8 type  2   force =     0.00000000    0.00000000    0.00265105
     atom    9 type  1   force =    -0.00000000    0.00000000    0.00683346
     atom   10 type  2   force =     0.00000000    0.00000000    0.00000000
     atom   11 type  1   force =    -0.00000000    0.00000000   -0.00683346
     atom   12 type  2   force =    -0.00000000   -0.00000000   -0.00265105
     atom   13 type  1   force =     0.00000000    0.00000000    0.00749292
     atom   14 type  2   force =     0.00000000    0.00000000    0.00062011
     atom   15 type  1   force =     0.00000000    0.00000000    0.00098360
     atom   16 type  2   force =     0.00000000    0.00000000    0.00050496
     atom   17 type  1   force =     0.00000000   -0.00000000   -0.00035471
     atom   18 type  2   force =     0.00000000    0.00000000    0.00006676
     atom   19 type  1   force =    -0.00000000   -0.00000000   -0.00038655
     The non-local contrib.  to forces
     atom    1 type  1   force =    -0.00000000    0.00000000    0.05662759
     atom    2 type  2   force =     0.00000000    0.00000000    0.03893306
     atom    3 type  1   force =    -0.00000000   -0.00000000   -0.02244883
     atom    4 type  2   force =     0.00000000   -0.00000000    0.00703282
     atom    5 type  1   force =     0.00000000   -0.00000000    0.01219706
     atom    6 type  2   force =     0.00000000    0.00000000   -0.00175056
     atom    7 type  1   force =     0.00000000    0.00000000   -0.00500929
     atom    8 type  2   force =    -0.00000000    0.00000000   -0.00137446
     atom    9 type  1   force =     0.00000000   -0.00000000    0.00215846
     atom   10 type  2   force =     0.00000000    0.00000000    0.00000000
     atom   11 type  1   force =     0.00000000    0.00000000   -0.00215846
     atom   12 type  2   force =     0.00000000   -0.00000000    0.00137446
     atom   13 type  1   force =     0.00000000    0.00000000    0.00500929
     atom   14 type  2   force =     0.00000000    0.00000000    0.00175056
     atom   15 type  1   force =    -0.00000000    0.00000000   -0.01219706
     atom   16 type  2   force =     0.00000000   -0.00000000   -0.00703282
     atom   17 type  1   force =     0.00000000   -0.00000000    0.02244883
     atom   18 type  2   force =     0.00000000   -0.00000000   -0.03893306
     atom   19 type  1   force =     0.00000000   -0.00000000   -0.05662759
     The ionic contribution  to forces
     atom    1 type  1   force =     0.00000000   -0.00000000 -357.82783964
     atom    2 type  2   force =    -0.00000000    0.00000000 -133.47688725
     atom    3 type  1   force =     0.00000000   -0.00000000 -278.75514826
     atom    4 type  2   force =    -0.00000000   -0.00000000  -99.82534747
     atom    5 type  1   force =    -0.00000000    0.00000000 -200.32092653
     atom    6 type  2   force =     0.00000000   -0.00000000  -66.77897786
     atom    7 type  1   force =    -0.00000000   -0.00000000 -119.95417502
     atom    8 type  2   force =    -0.00000000    0.00000000  -33.32258460
     atom    9 type  1   force =     0.00000000   -0.00000000  -39.98996461
     atom   10 type  2   force =    -0.00000000   -0.00000000    0.00000000
     atom   11 type  1   force =    -0.00000000    0.00000000   39.98996461
     atom   12 type  2   force =     0.00000000   -0.00000000   33.32258460
     atom   13 type  1   force =    -0.00000000   -0.00000000  119.95417502
     atom   14 type  2   force =    -0.00000000    0.00000000   66.77897786
     atom   15 type  1   force =     0.00000000   -0.00000000  200.32092653
     atom   16 type  2   force =    -0.00000000   -0.00000000   99.82534747
     atom   17 type  1   force =    -0.00000000    0.00000000  278.75514826
     atom   18 type  2   force =     0.00000000   -0.00000000  133.47688725
     atom   19 type  1   force =    -0.00000000    0.00000000  357.82783964
     The local contribution  to forces
     atom    1 type  1   force =     0.00000000   -0.00000000  357.78323014
     atom    2 type  2   force =    -0.00000001    0.00000001  133.43888480
     atom    3 type  1   force =     0.00000006   -0.00000004  278.77681419
     atom    4 type  2   force =     0.00000000   -0.00000000   99.81781933
     atom    5 type  1   force =    -0.00000005    0.00000006  200.30834216
     atom    6 type  2   force =     0.00000001   -0.00000001   66.78019297
     atom    7 type  1   force =     0.00000000   -0.00000000  119.95182590
     atom    8 type  2   force =    -0.00000001    0.00000001   33.32655248
     atom    9 type  1   force =     0.00000006   -0.00000004   39.99473278
     atom   10 type  2   force =     0.00000000   -0.00000000    0.00000000
     atom   11 type  1   force =    -0.00000005    0.00000006  -39.99473278
     atom   12 type  2   force =     0.00000001   -0.00000001  -33.32655248
     atom   13 type  1   force =     0.00000000    0.00000000 -119.95182590
     atom   14 type  2   force =    -0.00000001    0.00000001  -66.78019297
     atom   15 type  1   force =     0.00000006   -0.00000004 -200.30834216
     atom   16 type  2   force =    -0.00000000    0.00000000  -99.81781933
     atom   17 type  1   force =    -0.00000005    0.00000006 -278.77681419
     atom   18 type  2   force =     0.00000001   -0.00000001 -133.43888480
     atom   19 type  1   force =    -0.00000000    0.00000000 -357.78323014
     The core correction contribution to forces
     atom    1 type  1   force =    -0.00000000    0.00000000   -0.01163100
     atom    2 type  2   force =     0.00000000   -0.00000000   -0.00099836
     atom    3 type  1   force =    -0.00000000    0.00000000    0.00113079
     atom    4 type  2   force =     0.00000000   -0.00000000   -0.00001992
     atom    5 type  1   force =     0.00000000   -0.00000000   -0.00063441
     atom    6 type  2   force =    -0.00000000    0.00000000   -0.00010403
     atom    7 type  1   force =     0.00000000   -0.00000000   -0.00017550
     atom    8 type  2   force =     0.00000000   -0.00000000    0.00004457
     atom    9 type  1   force =    -0.00000000    0.00000000   -0.00010971
     atom   10 type  2   force =     0.00000000    0.00000000   -0.00000000
     atom   11 type  1   force =     0.00000000   -0.00000000    0.00010971
     atom   12 type  2   force =    -0.00000000    0.00000000   -0.00004457
     atom   13 type  1   force =    -0.00000000    0.00000000    0.00017550
     atom   14 type  2   force =     0.00000000   -0.00000000    0.00010403
     atom   15 type  1   force =    -0.00000000    0.00000000    0.00063441
     atom   16 type  2   force =    -0.00000000    0.00000000    0.00001992
     atom   17 type  1   force =     0.00000000   -0.00000000   -0.00113079
     atom   18 type  2   force =    -0.00000000    0.00000000    0.00099836
     atom   19 type  1   force =     0.00000000   -0.00000000    0.01163100
     The Hubbard contrib.    to forces
     atom    1 type  1   force =     0.00000000    0.00000000    0.00000000
     atom    2 type  2   force =     0.00000000    0.00000000    0.00000000
     atom    3 type  1   force =     0.00000000    0.00000000    0.00000000
     atom    4 type  2   force =     0.00000000    0.00000000    0.00000000
     atom    5 type  1   force =     0.00000000    0.00000000    0.00000000
     atom    6 type  2   force =     0.00000000    0.00000000    0.00000000
     atom    7 type  1   force =     0.00000000    0.00000000    0.00000000
     atom    8 type  2   force =     0.00000000    0.00000000    0.00000000
     atom    9 type  1   force =     0.00000000    0.00000000    0.00000000
     atom   10 type  2   force =     0.00000000    0.00000000    0.00000000
     atom   11 type  1   force =     0.00000000    0.00000000    0.00000000
     atom   12 type  2   force =     0.00000000    0.00000000    0.00000000
     atom   13 type  1   force =     0.00000000    0.00000000    0.00000000
     atom   14 type  2   force =     0.00000000    0.00000000    0.00000000
     atom   15 type  1   force =     0.00000000    0.00000000    0.00000000
     atom   16 type  2   force =     0.00000000    0.00000000    0.00000000
     atom   17 type  1   force =     0.00000000    0.00000000    0.00000000
     atom   18 type  2   force =     0.00000000    0.00000000    0.00000000
     atom   19 type  1   force =     0.00000000    0.00000000    0.00000000
     The SCF correction term to forces
     atom    1 type  1   force =     0.00000000   -0.00000000   -0.00000054
     atom    2 type  2   force =     0.00000000   -0.00000000    0.00000100
     atom    3 type  1   force =    -0.00000000    0.00000000    0.00000683
     atom    4 type  2   force =    -0.00000000   -0.00000000    0.00001029
     atom    5 type  1   force =     0.00000000   -0.00000000    0.00003812
     atom    6 type  2   force =    -0.00000000    0.00000000    0.00001938
     atom    7 type  1   force =     0.00000000   -0.00000000    0.00000000
     atom    8 type  2   force =    -0.00000000   -0.00000000    0.00000000
     atom    9 type  1   force =    -0.00000000   -0.00000000    0.00000000
     atom   10 type  2   force =    -0.00000000   -0.00000000    0.00000000
     atom   11 type  1   force =    -0.00000000    0.00000000   -0.00000000
     atom   12 type  2   force =    -0.00000000    0.00000000   -0.00000000
     atom   13 type  1   force =    -0.00000000    0.00000000   -0.00000000
     atom   14 type  2   force =     0.00000000    0.00000000   -0.00001938
     atom   15 type  1   force =    -0.00000000    0.00000000   -0.00003812
     atom   16 type  2   force =     0.00000000   -0.00000000   -0.00001029
     atom   17 type  1   force =     0.00000000   -0.00000000   -0.00000683
     atom   18 type  2   force =    -0.00000000    0.00000000   -0.00000100
     atom   19 type  1   force =    -0.00000000   -0.00000000    0.00000054

     Total force =     0.001943     Total SCF correction =     0.000063


     Computing stress (Cartesian axis) and pressure


     negative rho (up, down):  2.202E-04 0.000E+00
          total   stress  (Ry/bohr**3)                   (kbar)     P=        2.37
   0.00002099  -0.00000000   0.00000000            3.09       -0.00        0.00
  -0.00000000   0.00002099   0.00000000           -0.00        3.09        0.00
   0.00000000   0.00000000   0.00000644            0.00        0.00        0.95

     kinetic stress (kbar)  23061.25      0.00      0.00
                                0.00  23061.25      0.00
                                0.00      0.00  22971.53

     local   stress (kbar)**********      0.00     -0.00
                                0.00**********      0.00
                               -0.00      0.002050918.72

     nonloc. stress (kbar)      0.79     -0.00      0.00
                               -0.00      0.79      0.00
                                0.00      0.00     41.48

     hartree stress (kbar)1026521.63     -0.00     -0.00
                               -0.001026521.63     -0.00
                               -0.00     -0.00**********

     exc-cor stress (kbar)  -1520.88     -0.00     -0.00
                               -0.00  -1520.88      0.00
                               -0.00      0.00  -1524.43

     corecor stress (kbar)  -3162.14      0.00     -0.00
                                0.00  -3162.14      0.00
                               -0.00      0.00  -3161.82

     ewald   stress (kbar)1004271.78     -0.00      0.00
                               -0.001004271.78     -0.00
                                0.00     -0.00**********

     hubbard stress (kbar)      0.00      0.00      0.00
                                0.00      0.00      0.00
                                0.00      0.00      0.00

     DFT-D   stress (kbar)      0.00      0.00      0.00
                                0.00      0.00      0.00
                                0.00      0.00      0.00

     XDM     stress (kbar)      0.00      0.00      0.00
                                0.00      0.00      0.00
                                0.00      0.00      0.00

     dft-nl  stress (kbar)      0.00      0.00      0.00
                                0.00      0.00      0.00
                                0.00      0.00      0.00

     TS-vdW  stress (kbar)      0.00      0.00      0.00
                                0.00      0.00      0.00
                                0.00      0.00      0.00


     Energy error            =      3.1E-05
     Gradient error          =      9.8E-04

     number of scf cycles    =   6
     number of bfgs steps    =   5

     energy   old            =   -1383.7058375049 Ry
     energy   new            =   -1383.7058685305 Ry

     CASE: energy  _new < energy  _old

     new trust radius        =       0.0026716754 bohr
     new conv_thr            =            1.0E-10 Ry


ATOMIC_POSITIONS (angstrom)
Ti           -0.0000000000       -0.0000000000       10.0733509076
N             1.5004805900        0.8663028720       11.1735403322
Ti            3.0009611790        1.7326057450       12.4150408070
N            -0.0000000000        0.0000000000       13.6718407266
Ti            1.5004805900        0.8663028720       14.9176656055
N             3.0009611790        1.7326057450       16.1200562025
Ti            0.0000000000        0.0000000000       17.3508236270    0   0   0
N             1.5004805900        0.8663028720       18.5759608990    0   0   0
Ti            3.0009611790        1.7326057450       19.8010981700    0   0   0
N             0.0000000000        0.0000000000       21.0262354410    0   0   0
Ti            1.5004805900        0.8663028720       22.2513727120    0   0   0
N             3.0009611790        1.7326057450       23.4765099830    0   0   0
Ti            0.0000000000        0.0000000000       24.7016472550    0   0   0
N             1.5004805900        0.8663028720       25.9324146795
Ti            3.0009611790        1.7326057450       27.1348052765
N             0.0000000000       -0.0000000000       28.3806301554
Ti            1.5004805900        0.8663028720       29.6374300750
N             3.0009611790        1.7326057450       30.8789305498
Ti            0.0000000000        0.0000000000       31.9791199744



     Writing output data file ./tmp/tin111.save/
     NEW-OLD atomic charge density approx. for the potential

     Check: negative core charge=   -0.000003

     negative rho (up, down):  2.199E-04 0.000E+00

     total cpu time spent up to now is     2193.7 secs

     Self-consistent Calculation

     iteration #  1     ecut=    60.00 Ry     beta= 0.20
     Davidson diagonalization with overlap
     ethr =  1.00E-06,  avg # of iterations =  2.1

     Threshold (ethr) on eigenvalues was too large:
     Diagonalizing with lowered threshold

     Davidson diagonalization with overlap
     ethr =  1.61E-08,  avg # of iterations =  2.2

     negative rho (up, down):  2.200E-04 0.000E+00

     total cpu time spent up to now is     2242.3 secs

     total energy              =   -1383.70586645 Ry
     estimated scf accuracy    <       0.00002928 Ry

     iteration #  2     ecut=    60.00 Ry     beta= 0.20
     Davidson diagonalization with overlap
     ethr =  1.77E-08,  avg # of iterations =  2.0

     negative rho (up, down):  2.202E-04 0.000E+00

     total cpu time spent up to now is     2263.1 secs

     total energy              =   -1383.70581466 Ry
     estimated scf accuracy    <       0.00764397 Ry

     iteration #  3     ecut=    60.00 Ry     beta= 0.20
     Davidson diagonalization with overlap
     ethr =  1.77E-08,  avg # of iterations =  1.3

     negative rho (up, down):  2.203E-04 0.000E+00

     total cpu time spent up to now is     2281.3 secs

     total energy              =   -1383.70585815 Ry
     estimated scf accuracy    <       0.00172674 Ry

     iteration #  4     ecut=    60.00 Ry     beta= 0.20
     Davidson diagonalization with overlap
     ethr =  1.77E-08,  avg # of iterations =  1.3

     negative rho (up, down):  2.204E-04 0.000E+00

     total cpu time spent up to now is     2300.4 secs

     total energy              =   -1383.70587263 Ry
     estimated scf accuracy    <       0.00008341 Ry

     iteration #  5     ecut=    60.00 Ry     beta= 0.20
     Davidson diagonalization with overlap
     ethr =  1.77E-08,  avg # of iterations =  1.0

     negative rho (up, down):  2.203E-04 0.000E+00

     total cpu time spent up to now is     2317.6 secs

     total energy              =   -1383.70587472 Ry
     estimated scf accuracy    <       0.00000081 Ry

     iteration #  6     ecut=    60.00 Ry     beta= 0.20
     Davidson diagonalization with overlap
     ethr =  4.92E-10,  avg # of iterations =  1.9

     negative rho (up, down):  2.203E-04 0.000E+00

     total cpu time spent up to now is     2338.8 secs

     total energy              =   -1383.70587473 Ry
     estimated scf accuracy    <       0.00000032 Ry

     iteration #  7     ecut=    60.00 Ry     beta= 0.20
     Davidson diagonalization with overlap
     ethr =  1.96E-10,  avg # of iterations =  1.4

     negative rho (up, down):  2.203E-04 0.000E+00

     total cpu time spent up to now is     2356.8 secs

     total energy              =   -1383.70587474 Ry
     estimated scf accuracy    <       0.00000017 Ry

     iteration #  8     ecut=    60.00 Ry     beta= 0.20
     Davidson diagonalization with overlap
     ethr =  1.01E-10,  avg # of iterations =  2.0

     negative rho (up, down):  2.203E-04 0.000E+00

     total cpu time spent up to now is     2378.0 secs

     total energy              =   -1383.70587475 Ry
     estimated scf accuracy    <       0.00000001 Ry

     iteration #  9     ecut=    60.00 Ry     beta= 0.20
     Davidson diagonalization with overlap
     ethr =  7.35E-12,  avg # of iterations =  4.6

     negative rho (up, down):  2.203E-04 0.000E+00

     total cpu time spent up to now is     2399.2 secs

     total energy              =   -1383.70587475 Ry
     estimated scf accuracy    <          5.6E-09 Ry

     iteration # 10     ecut=    60.00 Ry     beta= 0.20
     Davidson diagonalization with overlap
     ethr =  3.42E-12,  avg # of iterations =  2.0

     negative rho (up, down):  2.203E-04 0.000E+00

     total cpu time spent up to now is     2421.2 secs

     total energy              =   -1383.70587475 Ry
     estimated scf accuracy    <          6.4E-10 Ry

     iteration # 11     ecut=    60.00 Ry     beta= 0.20
     Davidson diagonalization with overlap
     ethr =  3.86E-13,  avg # of iterations =  3.7

     negative rho (up, down):  2.203E-04 0.000E+00

     total cpu time spent up to now is     2443.5 secs

     total energy              =   -1383.70587475 Ry
     estimated scf accuracy    <          1.4E-10 Ry

     iteration # 12     ecut=    60.00 Ry     beta= 0.20
     Davidson diagonalization with overlap
     ethr =  1.00E-13,  avg # of iterations =  2.3

     negative rho (up, down):  2.203E-04 0.000E+00

     total cpu time spent up to now is     2465.4 secs

     total energy              =   -1383.70587475 Ry
     estimated scf accuracy    <          1.1E-10 Ry

     iteration # 13     ecut=    60.00 Ry     beta= 0.20
     Davidson diagonalization with overlap
     ethr =  1.00E-13,  avg # of iterations =  1.1

     negative rho (up, down):  2.203E-04 0.000E+00

     total cpu time spent up to now is     2482.9 secs

     total energy              =   -1383.70587475 Ry
     estimated scf accuracy    <       0.00000001 Ry

     iteration # 14     ecut=    60.00 Ry     beta= 0.20
     Davidson diagonalization with overlap
     ethr =  1.00E-13,  avg # of iterations =  1.0

     negative rho (up, down):  2.204E-04 0.000E+00

     total cpu time spent up to now is     2500.9 secs

     End of self-consistent calculation

          k = 0.0000 0.0000 0.0000 ( 17133 PWs)   bands (ev):

   -50.1201 -50.1200 -50.0638 -50.0256 -49.9860 -49.9763 -49.8385 -49.8384
   -49.3909 -49.3909 -26.6988 -26.6482 -26.5529 -26.4101 -26.2960 -26.2359
   -26.1838 -26.1838 -26.1838 -26.1838 -26.1623 -26.1173 -26.1173 -26.0958
   -26.0933 -26.0933 -26.0639 -26.0639 -26.0602 -26.0602 -25.9070 -25.9070
   -25.9070 -25.9070 -25.7403 -25.7403 -25.4183 -25.4183 -25.4183 -25.4183
    -9.2703  -9.1010  -8.8366  -8.5595  -8.2610  -7.8634  -7.4540  -7.1430
    -6.9344  -0.1917   0.1370   0.6281   1.2096   1.9344   2.3528   2.3528
     2.5153   2.5153   2.7639   2.7639   2.8342   3.0087   3.0087   3.3276
     3.3276   3.7702   3.8587   3.8587   4.4899   4.4899   4.6156   5.0501
     5.0501   5.3516   5.5137   5.5137   6.9812   7.0444   7.2358   7.2358
     7.3238   7.4248   7.4248   7.5414   7.6859   7.6859   7.8249   7.9564
     7.9564   8.1242   8.2262   8.2262   8.4615   8.4855   8.4855   8.5832
     8.5832   8.8503   8.8657   8.8657   8.9922   8.9922   9.2641   9.3135
     9.3135   9.4350   9.4350   9.6268   9.6268   9.6338   9.6338   9.6408
     9.9184  10.0782  10.1506  10.1506  10.9073  10.9073  11.6530  11.6530

     occupation numbers 
     1.0000   1.0000   1.0000   1.0000   1.0000   1.0000   1.0000   1.0000
     1.0000   1.0000   1.0000   1.0000   1.0000   1.0000   1.0000   1.0000
     1.0000   1.0000   1.0000   1.0000   1.0000   1.0000   1.0000   1.0000
     1.0000   1.0000   1.0000   1.0000   1.0000   1.0000   1.0000   1.0000
     1.0000   1.0000   1.0000   1.0000   1.0000   1.0000   1.0000   1.0000
     1.0000   1.0000   1.0000   1.0000   1.0000   1.0000   1.0000   1.0000
     1.0000   1.0000   1.0000   1.0000   1.0000   1.0000   1.0000   1.0000
     1.0000   1.0000   1.0000   1.0000   1.0000   1.0000   1.0000   1.0000
     1.0000   1.0000   1.0000   1.0000   1.0000   1.0000   1.0000   1.0000
     1.0000   1.0000   1.0000   1.0000   1.0000   1.0000   1.0000   1.0000
     1.0002   1.0056   1.0056   1.0579   0.9264   0.9264   0.2403   0.0124
     0.0124   0.0000   0.0000   0.0000   0.0000   0.0000   0.0000   0.0000
     0.0000   0.0000   0.0000   0.0000   0.0000   0.0000   0.0000   0.0000
     0.0000   0.0000   0.0000   0.0000   0.0000   0.0000   0.0000   0.0000
     0.0000   0.0000   0.0000   0.0000   0.0000   0.0000   0.0000   0.0000

          k = 0.0000 0.0962 0.0000 ( 17192 PWs)   bands (ev):

   -50.1155 -50.1153 -50.0586 -50.0213 -49.9824 -49.9732 -49.8342 -49.8342
   -49.3869 -49.3869 -26.6830 -26.6355 -26.5449 -26.4089 -26.3020 -26.2446
   -26.2075 -26.2059 -26.1917 -26.1917 -26.1719 -26.1464 -26.1279 -26.1167
   -26.1021 -26.1002 -26.0895 -26.0824 -26.0690 -26.0637 -25.9410 -25.9410
   -25.9140 -25.9140 -25.7354 -25.7354 -25.4479 -25.4479 -25.4247 -25.4247
    -9.1529  -8.9919  -8.7402  -8.4809  -8.2039  -7.8307  -7.4491  -7.1662
    -6.9800  -0.0434   0.2582   0.7041   1.2228   1.8489   2.3507   2.4021
     2.4986   2.5428   2.5583   2.7656   2.7964   2.9401   3.0261   3.2952
     3.3259   3.4160   3.8265   3.9778   4.0500   4.4043   4.5500   4.6426
     4.8816   4.9629   5.1524   5.2326   6.9203   6.9772   7.0888   7.2670
     7.3847   7.4960   7.5648   7.5759   7.7720   7.8396   7.8412   8.0218
     8.0912   8.1345   8.2863   8.3281   8.4562   8.5426   8.6473   8.6629
     8.7722   8.9323   8.9918   9.0269   9.0532   9.0715   9.3061   9.3653
     9.4033   9.4245   9.4999   9.5923   9.6721   9.6972   9.7995   9.8275
    10.0243  10.1214  10.2200  10.2998  10.8214  10.9530  11.4928  11.6767

     occupation numbers 
     1.0000   1.0000   1.0000   1.0000   1.0000   1.0000   1.0000   1.0000
     1.0000   1.0000   1.0000   1.0000   1.0000   1.0000   1.0000   1.0000
     1.0000   1.0000   1.0000   1.0000   1.0000   1.0000   1.0000   1.0000
     1.0000   1.0000   1.0000   1.0000   1.0000   1.0000   1.0000   1.0000
     1.0000   1.0000   1.0000   1.0000   1.0000   1.0000   1.0000   1.0000
     1.0000   1.0000   1.0000   1.0000   1.0000   1.0000   1.0000   1.0000
     1.0000   1.0000   1.0000   1.0000   1.0000   1.0000   1.0000   1.0000
     1.0000   1.0000   1.0000   1.0000   1.0000   1.0000   1.0000   1.0000
     1.0000   1.0000   1.0000   1.0000   1.0000   1.0000   1.0000   1.0000
     1.0000   1.0000   1.0000   1.0000   1.0000   1.0000   1.0000   1.0000
     1.0017   1.0288   1.0730   1.0785   0.4893   0.1880   0.1828   0.0015
     0.0001   0.0000   0.0000   0.0000   0.0000   0.0000   0.0000   0.0000
     0.0000   0.0000   0.0000   0.0000   0.0000   0.0000   0.0000   0.0000
     0.0000   0.0000   0.0000   0.0000   0.0000   0.0000   0.0000   0.0000
     0.0000   0.0000   0.0000   0.0000   0.0000   0.0000   0.0000   0.0000

          k = 0.0000 0.1925 0.0000 ( 17226 PWs)   bands (ev):

   -50.1027 -50.1026 -50.0440 -50.0095 -49.9725 -49.9647 -49.8224 -49.8224
   -49.3762 -49.3761 -26.6391 -26.6011 -26.5261 -26.4188 -26.3532 -26.3126
   -26.2586 -26.2279 -26.2211 -26.2133 -26.2132 -26.2094 -26.1664 -26.1547
   -26.1522 -26.1379 -26.1196 -26.1003 -26.0834 -26.0743 -26.0243 -26.0238
   -25.9331 -25.9331 -25.7273 -25.7273 -25.5273 -25.5273 -25.4422 -25.4422
    -8.8245  -8.6882  -8.4742  -8.2667  -8.0512  -7.7461  -7.4395  -7.2287
    -7.0987   0.3644   0.5870   0.9044   1.2553   1.6615   2.0559   2.3395
     2.3658   2.5184   2.5498   2.6334   2.6563   2.8650   2.9847   3.0545
     3.0949   3.3043   3.4295   3.6161   3.7300   3.7849   4.1311   4.1952
     4.3431   4.5407   4.6700   4.7672   6.4508   6.6949   7.0164   7.1013
     7.1619   7.4827   7.7424   7.8479   7.9075   7.9865   8.1514   8.2052
     8.2731   8.3885   8.5278   8.5816   8.6013   8.7060   8.8746   8.8764
     8.9618   9.1125   9.1871   9.2229   9.2955   9.3590   9.4737   9.4963
     9.6774   9.6848   9.7848   9.8430   9.8697   9.9092   9.9750  10.0126
    10.2281  10.4079  10.5154  10.7793  10.9653  11.0638  11.3023  11.7276

     occupation numbers 
     1.0000   1.0000   1.0000   1.0000   1.0000   1.0000   1.0000   1.0000
     1.0000   1.0000   1.0000   1.0000   1.0000   1.0000   1.0000   1.0000
     1.0000   1.0000   1.0000   1.0000   1.0000   1.0000   1.0000   1.0000
     1.0000   1.0000   1.0000   1.0000   1.0000   1.0000   1.0000   1.0000
     1.0000   1.0000   1.0000   1.0000   1.0000   1.0000   1.0000   1.0000
     1.0000   1.0000   1.0000   1.0000   1.0000   1.0000   1.0000   1.0000
     1.0000   1.0000   1.0000   1.0000   1.0000   1.0000   1.0000   1.0000
     1.0000   1.0000   1.0000   1.0000   1.0000   1.0000   1.0000   1.0000
     1.0000   1.0000   1.0000   1.0000   1.0000   1.0000   1.0000   1.0000
     1.0000   1.0000   1.0000   1.0000   1.0000   1.0000   1.0000   1.0000
     1.0000   1.0223   0.6522   0.1620   0.0458   0.0049   0.0000   0.0000
     0.0000   0.0000   0.0000   0.0000   0.0000   0.0000   0.0000   0.0000
     0.0000   0.0000   0.0000   0.0000   0.0000   0.0000   0.0000   0.0000
     0.0000   0.0000   0.0000   0.0000   0.0000   0.0000   0.0000   0.0000
     0.0000   0.0000   0.0000   0.0000   0.0000   0.0000   0.0000   0.0000

          k = 0.0000 0.2887 0.0000 ( 17282 PWs)   bands (ev):

   -50.0852 -50.0852 -50.0235 -49.9934 -49.9591 -49.9536 -49.8063 -49.8063
   -49.3614 -49.3614 -26.5795 -26.5594 -26.5191 -26.4794 -26.4561 -26.4170
   -26.3559 -26.3167 -26.2680 -26.2427 -26.2423 -26.2301 -26.2139 -26.2083
   -26.1884 -26.1704 -26.1460 -26.1296 -26.1040 -26.1031 -26.0937 -26.0906
   -25.9591 -25.9591 -25.7218 -25.7218 -25.6318 -25.6318 -25.4660 -25.4660
    -8.3629  -8.2669  -8.1115  -7.9819  -7.8544  -7.6406  -7.4265  -7.2957
    -7.2268   0.8295   0.9737   1.1456   1.2709   1.4543   1.6996   1.8768
     2.0064   2.1468   2.2795   2.4178   2.5999   2.6384   2.7154   2.8915
     2.9212   3.0417   3.1905   3.2445   3.4050   3.5835   3.6070   3.9629
     3.9997   4.2855   4.3402   4.4686   5.8532   6.1824   6.6367   7.1148
     7.2210   7.2249   7.6511   8.2032   8.2520   8.3759   8.4184   8.5325
     8.5692   8.7363   8.7660   8.7886   8.9496   8.9833   9.0465   9.0654
     9.1632   9.3283   9.4038   9.5082   9.6206   9.7079   9.7319   9.7430
     9.7910   9.8704   9.8890   9.9148   9.9957  10.0839  10.1599  10.6173
    10.7342  10.9420  11.1722  11.2181  11.2892  11.4262  11.5562  11.7408

     occupation numbers 
     1.0000   1.0000   1.0000   1.0000   1.0000   1.0000   1.0000   1.0000
     1.0000   1.0000   1.0000   1.0000   1.0000   1.0000   1.0000   1.0000
     1.0000   1.0000   1.0000   1.0000   1.0000   1.0000   1.0000   1.0000
     1.0000   1.0000   1.0000   1.0000   1.0000   1.0000   1.0000   1.0000
     1.0000   1.0000   1.0000   1.0000   1.0000   1.0000   1.0000   1.0000
     1.0000   1.0000   1.0000   1.0000   1.0000   1.0000   1.0000   1.0000
     1.0000   1.0000   1.0000   1.0000   1.0000   1.0000   1.0000   1.0000
     1.0000   1.0000   1.0000   1.0000   1.0000   1.0000   1.0000   1.0000
     1.0000   1.0000   1.0000   1.0000   1.0000   1.0000   1.0000   1.0000
     1.0000   1.0000   1.0000   1.0000   1.0000   1.0000   1.0000   1.0000
     1.0000   1.0000   1.0308   0.0000   0.0000   0.0000   0.0000   0.0000
     0.0000   0.0000   0.0000   0.0000   0.0000   0.0000   0.0000   0.0000
     0.0000   0.0000   0.0000   0.0000   0.0000   0.0000   0.0000   0.0000
     0.0000   0.0000   0.0000   0.0000   0.0000   0.0000   0.0000   0.0000
     0.0000   0.0000   0.0000   0.0000   0.0000   0.0000   0.0000   0.0000

          k = 0.0000 0.3849 0.0000 ( 17380 PWs)   bands (ev):

   -50.0677 -50.0677 -50.0019 -49.9775 -49.9460 -49.9428 -49.7901 -49.7901
   -49.3465 -49.3465 -26.6020 -26.5917 -26.5548 -26.5304 -26.5212 -26.4760
   -26.4614 -26.3820 -26.3217 -26.2862 -26.2720 -26.2713 -26.2685 -26.2344
   -26.2203 -26.1863 -26.1721 -26.1519 -26.1287 -26.1251 -26.1138 -26.1080
   -25.9849 -25.9849 -25.7388 -25.7388 -25.7112 -25.7112 -25.4897 -25.4897
    -7.9571  -7.9040  -7.8021  -7.7374  -7.6748  -7.5187  -7.3553  -7.2591
    -7.2202   0.6155   0.7869   1.0306   1.2468   1.4058   1.4163   1.5122
     1.6543   1.9806   2.0234   2.3225   2.5340   2.5506   2.6489   2.7402
     2.8218   2.8261   2.9268   2.9805   3.1854   3.2999   3.5447   3.7586
     3.9330   4.2037   4.2161   4.3974   5.3312   5.7534   6.2781   6.8115
     7.3793   7.4847   7.5201   8.0724   8.6468   8.8172   8.9044   8.9424
     8.9555   9.0448   9.0827   9.1804   9.2058   9.2815   9.4091   9.4951
     9.5160   9.5215   9.5507   9.6766   9.7003   9.8192   9.8828   9.9600
    10.0143  10.0180  10.0780  10.1238  10.1441  10.1579  10.3697  10.7346
    11.2277  11.2296  11.3901  11.5948  11.6615  11.7199  11.7866  11.8285

     occupation numbers 
     1.0000   1.0000   1.0000   1.0000   1.0000   1.0000   1.0000   1.0000
     1.0000   1.0000   1.0000   1.0000   1.0000   1.0000   1.0000   1.0000
     1.0000   1.0000   1.0000   1.0000   1.0000   1.0000   1.0000   1.0000
     1.0000   1.0000   1.0000   1.0000   1.0000   1.0000   1.0000   1.0000
     1.0000   1.0000   1.0000   1.0000   1.0000   1.0000   1.0000   1.0000
     1.0000   1.0000   1.0000   1.0000   1.0000   1.0000   1.0000   1.0000
     1.0000   1.0000   1.0000   1.0000   1.0000   1.0000   1.0000   1.0000
     1.0000   1.0000   1.0000   1.0000   1.0000   1.0000   1.0000   1.0000
     1.0000   1.0000   1.0000   1.0000   1.0000   1.0000   1.0000   1.0000
     1.0000   1.0000   1.0000   1.0000   1.0000   1.0000   1.0000   1.0000
     1.0014   1.0232   1.0433   0.0002   0.0000   0.0000   0.0000   0.0000
     0.0000   0.0000   0.0000   0.0000   0.0000   0.0000   0.0000   0.0000
     0.0000   0.0000   0.0000   0.0000   0.0000   0.0000   0.0000   0.0000
     0.0000   0.0000   0.0000   0.0000   0.0000   0.0000   0.0000   0.0000
     0.0000   0.0000   0.0000   0.0000   0.0000   0.0000   0.0000   0.0000

          k = 0.0000 0.4811 0.0000 ( 17374 PWs)   bands (ev):

   -50.0549 -50.0549 -49.9846 -49.9665 -49.9367 -49.9353 -49.7782 -49.7782
   -49.3356 -49.3356 -26.6847 -26.6733 -26.6228 -26.5751 -26.5573 -26.5439
   -26.4377 -26.4185 -26.3508 -26.3144 -26.2935 -26.2923 -26.2813 -26.2529
   -26.2428 -26.1982 -26.1909 -26.1572 -26.1407 -26.1340 -26.1234 -26.1214
   -26.0038 -26.0038 -25.8025 -25.8025 -25.7142 -25.7142 -25.5070 -25.5070
    -7.8769  -7.8073  -7.6906  -7.6123  -7.5229  -7.3370  -7.1557  -7.0510
    -7.0057   0.0372   0.2426   0.5458   0.8475   1.1454   1.4509   1.7074
     1.8953   1.9975   2.2776   2.3682   2.4013   2.4346   2.4881   2.5316
     2.5474   2.7312   2.7400   2.9141   3.1480   3.1665   3.5346   3.6671
     3.9482   4.1703   4.2512   4.4473   4.9810   5.4998   6.0627   6.6222
     7.2453   7.7968   7.8093   7.9465   8.5828   9.0560   9.2887   9.3175
     9.3435   9.3752   9.4178   9.4585   9.5912   9.6105   9.6675   9.6708
     9.7512   9.8190   9.8743   9.9254   9.9336   9.9525  10.0402  10.0597
    10.1386  10.1445  10.1744  10.2068  10.2091  10.2783  10.4364  10.7202
    11.1875  11.4414  11.4904  11.5974  11.7369  11.8066  12.0869  12.2778

     occupation numbers 
     1.0000   1.0000   1.0000   1.0000   1.0000   1.0000   1.0000   1.0000
     1.0000   1.0000   1.0000   1.0000   1.0000   1.0000   1.0000   1.0000
     1.0000   1.0000   1.0000   1.0000   1.0000   1.0000   1.0000   1.0000
     1.0000   1.0000   1.0000   1.0000   1.0000   1.0000   1.0000   1.0000
     1.0000   1.0000   1.0000   1.0000   1.0000   1.0000   1.0000   1.0000
     1.0000   1.0000   1.0000   1.0000   1.0000   1.0000   1.0000   1.0000
     1.0000   1.0000   1.0000   1.0000   1.0000   1.0000   1.0000   1.0000
     1.0000   1.0000   1.0000   1.0000   1.0000   1.0000   1.0000   1.0000
     1.0000   1.0000   1.0000   1.0000   1.0000   1.0000   1.0000   1.0000
     1.0000   1.0000   1.0000   1.0000   1.0000   1.0000   1.0000   1.0000
     1.0000   0.3619   0.3043   0.0165   0.0000   0.0000   0.0000   0.0000
     0.0000   0.0000   0.0000   0.0000   0.0000   0.0000   0.0000   0.0000
     0.0000   0.0000   0.0000   0.0000   0.0000   0.0000   0.0000   0.0000
     0.0000   0.0000   0.0000   0.0000   0.0000   0.0000   0.0000   0.0000
     0.0000   0.0000   0.0000   0.0000   0.0000   0.0000   0.0000   0.0000

          k = 0.0000-0.5774 0.0000 ( 17314 PWs)   bands (ev):

   -50.0501 -50.0501 -49.9777 -49.9629 -49.9334 -49.9326 -49.7738 -49.7738
   -49.3316 -49.3316 -26.7160 -26.7041 -26.6529 -26.5941 -26.5805 -26.5678
   -26.4444 -26.4382 -26.3205 -26.3059 -26.3013 -26.3000 -26.2833 -26.2799
   -26.2509 -26.2050 -26.1978 -26.1598 -26.1465 -26.1349 -26.1263 -26.1261
   -26.0106 -26.0106 -25.8254 -25.8254 -25.7143 -25.7143 -25.5133 -25.5133
    -7.8910  -7.8090  -7.6770  -7.5803  -7.4672  -7.2540  -7.0489  -6.9287
    -6.8710  -0.2238   0.0053   0.3512   0.7201   1.1037   1.5096   1.7964
     1.9213   1.9666   2.2987   2.3043   2.3428   2.3636   2.4628   2.4799
     2.5462   2.6896   2.7358   2.8855   3.1332   3.1390   3.5341   3.6416
     3.9621   4.1648   4.2774   4.4829   4.8579   5.4234   5.9949   6.5604
     7.1906   7.8762   7.9575   7.9659   8.5510   9.0796   9.4415   9.4822
     9.4920   9.5208   9.5381   9.6280   9.6824   9.6828   9.7094   9.7674
     9.8685   9.8971  10.0362  10.0436  10.0669  10.0955  10.1075  10.1095
    10.1646  10.1733  10.1883  10.2813  10.2843  10.4612  10.4863  10.6165
    11.1229  11.4182  11.5096  11.6866  11.6902  11.9678  12.2450  12.3084

     occupation numbers 
     1.0000   1.0000   1.0000   1.0000   1.0000   1.0000   1.0000   1.0000
     1.0000   1.0000   1.0000   1.0000   1.0000   1.0000   1.0000   1.0000
     1.0000   1.0000   1.0000   1.0000   1.0000   1.0000   1.0000   1.0000
     1.0000   1.0000   1.0000   1.0000   1.0000   1.0000   1.0000   1.0000
     1.0000   1.0000   1.0000   1.0000   1.0000   1.0000   1.0000   1.0000
     1.0000   1.0000   1.0000   1.0000   1.0000   1.0000   1.0000   1.0000
     1.0000   1.0000   1.0000   1.0000   1.0000   1.0000   1.0000   1.0000
     1.0000   1.0000   1.0000   1.0000   1.0000   1.0000   1.0000   1.0000
     1.0000   1.0000   1.0000   1.0000   1.0000   1.0000   1.0000   1.0000
     1.0000   1.0000   1.0000   1.0000   1.0000   1.0000   1.0000   1.0000
     1.0000   0.0930   0.0120   0.0093   0.0000   0.0000   0.0000   0.0000
     0.0000   0.0000   0.0000   0.0000   0.0000   0.0000   0.0000   0.0000
     0.0000   0.0000   0.0000   0.0000   0.0000   0.0000   0.0000   0.0000
     0.0000   0.0000   0.0000   0.0000   0.0000   0.0000   0.0000   0.0000
     0.0000   0.0000   0.0000   0.0000   0.0000   0.0000   0.0000   0.0000

          k = 0.0833 0.1443 0.0000 ( 17259 PWs)   bands (ev):

   -50.1068 -50.1067 -50.0487 -50.0132 -49.9756 -49.9674 -49.8261 -49.8261
   -49.3796 -49.3796 -26.6531 -26.6119 -26.5314 -26.4125 -26.3308 -26.2864
   -26.2379 -26.2252 -26.2146 -26.2074 -26.1991 -26.1903 -26.1588 -26.1466
   -26.1304 -26.1284 -26.1052 -26.0980 -26.0801 -26.0764 -25.9975 -25.9973
   -25.9292 -25.9292 -25.7293 -25.7293 -25.5007 -25.5007 -25.4383 -25.4383
    -8.9296  -8.7850  -8.5586  -8.3342  -8.0988  -7.7720  -7.4422  -7.2096
    -7.0630   0.2372   0.4848   0.8431   1.2464   1.7139   2.1722   2.3596
     2.4424   2.5365   2.5794   2.6030   2.7882   2.8944   2.9378   3.1074
     3.2424   3.3234   3.5966   3.7236   3.8127   4.0805   4.1676   4.3025
     4.5407   4.5643   4.6020   4.8336   6.9003   6.9429   7.0467   7.1680
     7.2318   7.4818   7.4999   7.6258   7.7694   8.0143   8.0155   8.1117
     8.2882   8.2959   8.3655   8.5452   8.6367   8.6421   8.8388   8.9266
     8.9294   9.0573   9.1107   9.2225   9.2227   9.3109   9.4219   9.5256
     9.5608   9.5786   9.6068   9.6732   9.7276   9.8499   9.9234  10.0047
    10.1363  10.2164  10.5386  10.6247  10.8801  11.0021  11.4498  11.5525

     occupation numbers 
     1.0000   1.0000   1.0000   1.0000   1.0000   1.0000   1.0000   1.0000
     1.0000   1.0000   1.0000   1.0000   1.0000   1.0000   1.0000   1.0000
     1.0000   1.0000   1.0000   1.0000   1.0000   1.0000   1.0000   1.0000
     1.0000   1.0000   1.0000   1.0000   1.0000   1.0000   1.0000   1.0000
     1.0000   1.0000   1.0000   1.0000   1.0000   1.0000   1.0000   1.0000
     1.0000   1.0000   1.0000   1.0000   1.0000   1.0000   1.0000   1.0000
     1.0000   1.0000   1.0000   1.0000   1.0000   1.0000   1.0000   1.0000
     1.0000   1.0000   1.0000   1.0000   1.0000   1.0000   1.0000   1.0000
     1.0000   1.0000   1.0000   1.0000   1.0000   1.0000   1.0000   1.0000
     1.0000   1.0000   1.0000   1.0000   1.0000   1.0000   1.0000   1.0000
     1.0000   1.0219   1.0310   1.0699   0.5032   0.0019   0.0018   0.0000
     0.0000   0.0000   0.0000   0.0000   0.0000   0.0000   0.0000   0.0000
     0.0000   0.0000   0.0000   0.0000   0.0000   0.0000   0.0000   0.0000
     0.0000   0.0000   0.0000   0.0000   0.0000   0.0000   0.0000   0.0000
     0.0000   0.0000   0.0000   0.0000   0.0000   0.0000   0.0000   0.0000

          k = 0.0833 0.2406 0.0000 ( 17323 PWs)   bands (ev):

   -50.0917 -50.0916 -50.0311 -49.9993 -49.9640 -49.9576 -49.8122 -49.8122
   -49.3668 -49.3668 -26.6001 -26.5730 -26.5159 -26.4455 -26.4125 -26.3746
   -26.3170 -26.2810 -26.2594 -26.2386 -26.2265 -26.2235 -26.2038 -26.1882
   -26.1673 -26.1535 -26.1356 -26.1217 -26.1001 -26.0954 -26.0762 -26.0719
   -25.9568 -25.9568 -25.7228 -25.7228 -25.5887 -25.5887 -25.4629 -25.4629
    -8.5301  -8.4180  -8.2402  -8.0817  -7.9226  -7.6776  -7.4344  -7.2805
    -7.1942   0.7232   0.8651   1.0577   1.2664   1.5376   1.8160   2.0162
     2.2160   2.3851   2.4113   2.6197   2.7099   2.7423   2.7798   2.9133
     3.0374   3.0837   3.2343   3.3544   3.5548   3.6449   3.7599   3.9304
     3.9786   4.1498   4.2054   4.3244   6.5003   6.6927   7.0074   7.1329
     7.1650   7.4355   7.5340   7.8018   7.8722   8.0063   8.2175   8.4296
     8.5206   8.6008   8.6659   8.7617   8.8435   8.8777   9.0179   9.0944
     9.2557   9.3599   9.3883   9.4639   9.5059   9.5754   9.6658   9.7404
     9.7532   9.7660   9.8573   9.9045   9.9884   9.9980  10.0443  10.2486
    10.3457  10.5662  10.8573  11.1600  11.2269  11.3878  11.5265  11.6553

     occupation numbers 
     1.0000   1.0000   1.0000   1.0000   1.0000   1.0000   1.0000   1.0000
     1.0000   1.0000   1.0000   1.0000   1.0000   1.0000   1.0000   1.0000
     1.0000   1.0000   1.0000   1.0000   1.0000   1.0000   1.0000   1.0000
     1.0000   1.0000   1.0000   1.0000   1.0000   1.0000   1.0000   1.0000
     1.0000   1.0000   1.0000   1.0000   1.0000   1.0000   1.0000   1.0000
     1.0000   1.0000   1.0000   1.0000   1.0000   1.0000   1.0000   1.0000
     1.0000   1.0000   1.0000   1.0000   1.0000   1.0000   1.0000   1.0000
     1.0000   1.0000   1.0000   1.0000   1.0000   1.0000   1.0000   1.0000
     1.0000   1.0000   1.0000   1.0000   1.0000   1.0000   1.0000   1.0000
     1.0000   1.0000   1.0000   1.0000   1.0000   1.0000   1.0000   1.0000
     1.0000   1.0074   1.0528   0.3384   0.1011   0.0025   0.0000   0.0000
     0.0000   0.0000   0.0000   0.0000   0.0000   0.0000   0.0000   0.0000
     0.0000   0.0000   0.0000   0.0000   0.0000   0.0000   0.0000   0.0000
     0.0000   0.0000   0.0000   0.0000   0.0000   0.0000   0.0000   0.0000
     0.0000   0.0000   0.0000   0.0000   0.0000   0.0000   0.0000   0.0000

          k = 0.0833 0.3368 0.0000 ( 17369 PWs)   bands (ev):

   -50.0742 -50.0741 -50.0100 -49.9833 -49.9508 -49.9467 -49.7960 -49.7960
   -49.3520 -49.3520 -26.5595 -26.5508 -26.5364 -26.5106 -26.4937 -26.4708
   -26.4211 -26.3579 -26.3020 -26.2760 -26.2757 -26.2461 -26.2352 -26.2293
   -26.2091 -26.1831 -26.1696 -26.1465 -26.1344 -26.1235 -26.1143 -26.0979
   -25.9883 -25.9883 -25.7203 -25.7203 -25.6846 -25.6846 -25.4913 -25.4913
    -8.0667  -8.0012  -7.8861  -7.8076  -7.7343  -7.5743  -7.4115  -7.3190
    -7.2821   0.9141   1.0540   1.2477   1.3671   1.4112   1.4704   1.6197
     1.7399   1.9569   1.9661   2.3802   2.6054   2.6551   2.7181   2.8440
     2.9012   2.9369   3.0279   3.1215   3.2196   3.3149   3.4565   3.6856
     3.7179   3.8793   3.9302   4.0841   6.0238   6.2737   6.6846   7.1449
     7.3245   7.3328   7.6862   8.0212   8.2239   8.2619   8.4798   8.5899
     8.8278   8.8806   9.0808   9.1660   9.1893   9.2444   9.2964   9.3586
     9.4115   9.4731   9.5243   9.6903   9.6942   9.7727   9.8810   9.9487
     9.9805  10.0129  10.0543  10.0768  10.1245  10.1554  10.3151  10.5962
    10.9698  10.9854  11.1620  11.3758  11.3968  11.7345  11.8811  11.9059

     occupation numbers 
     1.0000   1.0000   1.0000   1.0000   1.0000   1.0000   1.0000   1.0000
     1.0000   1.0000   1.0000   1.0000   1.0000   1.0000   1.0000   1.0000
     1.0000   1.0000   1.0000   1.0000   1.0000   1.0000   1.0000   1.0000
     1.0000   1.0000   1.0000   1.0000   1.0000   1.0000   1.0000   1.0000
     1.0000   1.0000   1.0000   1.0000   1.0000   1.0000   1.0000   1.0000
     1.0000   1.0000   1.0000   1.0000   1.0000   1.0000   1.0000   1.0000
     1.0000   1.0000   1.0000   1.0000   1.0000   1.0000   1.0000   1.0000
     1.0000   1.0000   1.0000   1.0000   1.0000   1.0000   1.0000   1.0000
     1.0000   1.0000   1.0000   1.0000   1.0000   1.0000   1.0000   1.0000
     1.0000   1.0000   1.0000   1.0000   1.0000   1.0000   1.0000   1.0000
     1.0002   1.0003   0.9253   0.0015   0.0000   0.0000   0.0000   0.0000
     0.0000   0.0000   0.0000   0.0000   0.0000   0.0000   0.0000   0.0000
     0.0000   0.0000   0.0000   0.0000   0.0000   0.0000   0.0000   0.0000
     0.0000   0.0000   0.0000   0.0000   0.0000   0.0000   0.0000   0.0000
     0.0000   0.0000   0.0000   0.0000   0.0000   0.0000   0.0000   0.0000

          k = 0.0833 0.4330 0.0000 ( 17416 PWs)   bands (ev):

   -50.0590 -50.0590 -49.9903 -49.9699 -49.9396 -49.9377 -49.7820 -49.7820
   -49.3391 -49.3391 -26.6399 -26.6299 -26.5817 -26.5503 -26.5299 -26.5124
   -26.4461 -26.3983 -26.3440 -26.3178 -26.3038 -26.2881 -26.2734 -26.2480
   -26.2367 -26.2129 -26.1766 -26.1663 -26.1443 -26.1373 -26.1278 -26.1147
   -26.0149 -26.0148 -25.7696 -25.7696 -25.7133 -25.7133 -25.5156 -25.5156
    -7.8227  -7.7733  -7.6795  -7.6278  -7.5716  -7.4226  -7.2734  -7.1877
    -7.1601   0.4086   0.5824   0.8318   1.0497   1.2305   1.4116   1.6174
     1.8275   2.0336   2.1967   2.3637   2.4219   2.5180   2.5974   2.6639
     2.7133   2.7653   2.8028   2.8911   3.0430   3.1791   3.3284   3.5784
     3.6434   3.7650   3.8258   4.0645   5.6959   5.9766   6.4292   6.9262
     7.4841   7.6268   7.6472   8.1305   8.6248   8.6714   8.7971   8.9797
     9.0598   9.2008   9.2685   9.4201   9.4408   9.5091   9.5911   9.6765
     9.7136   9.7582   9.8078   9.8668   9.9043   9.9378  10.0114  10.1011
    10.1299  10.1607  10.1666  10.1757  10.2062  10.2715  10.4677  10.7382
    11.0731  11.3292  11.5003  11.6244  11.6487  11.7508  11.9321  12.0718

     occupation numbers 
     1.0000   1.0000   1.0000   1.0000   1.0000   1.0000   1.0000   1.0000
     1.0000   1.0000   1.0000   1.0000   1.0000   1.0000   1.0000   1.0000
     1.0000   1.0000   1.0000   1.0000   1.0000   1.0000   1.0000   1.0000
     1.0000   1.0000   1.0000   1.0000   1.0000   1.0000   1.0000   1.0000
     1.0000   1.0000   1.0000   1.0000   1.0000   1.0000   1.0000   1.0000
     1.0000   1.0000   1.0000   1.0000   1.0000   1.0000   1.0000   1.0000
     1.0000   1.0000   1.0000   1.0000   1.0000   1.0000   1.0000   1.0000
     1.0000   1.0000   1.0000   1.0000   1.0000   1.0000   1.0000   1.0000
     1.0000   1.0000   1.0000   1.0000   1.0000   1.0000   1.0000   1.0000
     1.0000   1.0000   1.0000   1.0000   1.0000   1.0000   1.0000   1.0000
     1.0229   1.0689   1.0387   0.0000   0.0000   0.0000   0.0000   0.0000
     0.0000   0.0000   0.0000   0.0000   0.0000   0.0000   0.0000   0.0000
     0.0000   0.0000   0.0000   0.0000   0.0000   0.0000   0.0000   0.0000
     0.0000   0.0000   0.0000   0.0000   0.0000   0.0000   0.0000   0.0000
     0.0000   0.0000   0.0000   0.0000   0.0000   0.0000   0.0000   0.0000

          k = 0.0833-0.6255 0.0000 ( 17393 PWs)   bands (ev):

   -50.0502 -50.0502 -49.9778 -49.9629 -49.9334 -49.9326 -49.7739 -49.7739
   -49.3316 -49.3316 -26.6964 -26.6850 -26.6345 -26.5794 -26.5653 -26.5544
   -26.4345 -26.4255 -26.3369 -26.3224 -26.3178 -26.3021 -26.2849 -26.2736
   -26.2526 -26.2284 -26.1863 -26.1749 -26.1494 -26.1438 -26.1296 -26.1260
   -26.0299 -26.0299 -25.8123 -25.8123 -25.7133 -25.7133 -25.5295 -25.5295
    -7.8308  -7.7586  -7.6402  -7.5605  -7.4658  -7.2740  -7.0911  -6.9874
    -6.9438  -0.0453   0.1639   0.4791   0.8076   1.1457   1.5054   1.7800
     1.9275   1.9849   2.3166   2.3392   2.4027   2.4116   2.4803   2.5106
     2.5637   2.6678   2.7374   2.8168   3.0047   3.1200   3.3120   3.5214
     3.6566   3.7224   3.7921   4.1010   5.5476   5.8391   6.3061   6.8138
     7.3990   7.8828   7.8858   8.0433   8.6374   9.0603   9.2262   9.3037
     9.3431   9.4000   9.4754   9.5212   9.5685   9.6639   9.7734   9.8103
     9.8992   9.9422   9.9771  10.0095  10.0277  10.0758  10.0937  10.1460
    10.1592  10.1729  10.2223  10.2297  10.3134  10.4188  10.5261  10.7281
    11.0564  11.4585  11.4866  11.5619  11.7619  11.9157  12.1049  12.3053

     occupation numbers 
     1.0000   1.0000   1.0000   1.0000   1.0000   1.0000   1.0000   1.0000
     1.0000   1.0000   1.0000   1.0000   1.0000   1.0000   1.0000   1.0000
     1.0000   1.0000   1.0000   1.0000   1.0000   1.0000   1.0000   1.0000
     1.0000   1.0000   1.0000   1.0000   1.0000   1.0000   1.0000   1.0000
     1.0000   1.0000   1.0000   1.0000   1.0000   1.0000   1.0000   1.0000
     1.0000   1.0000   1.0000   1.0000   1.0000   1.0000   1.0000   1.0000
     1.0000   1.0000   1.0000   1.0000   1.0000   1.0000   1.0000   1.0000
     1.0000   1.0000   1.0000   1.0000   1.0000   1.0000   1.0000   1.0000
     1.0000   1.0000   1.0000   1.0000   1.0000   1.0000   1.0000   1.0000
     1.0000   1.0000   1.0000   1.0000   1.0000   1.0000   1.0000   1.0000
     1.0026   0.0807   0.0756   0.0007   0.0000   0.0000   0.0000   0.0000
     0.0000   0.0000   0.0000   0.0000   0.0000   0.0000   0.0000   0.0000
     0.0000   0.0000   0.0000   0.0000   0.0000   0.0000   0.0000   0.0000
     0.0000   0.0000   0.0000   0.0000   0.0000   0.0000   0.0000   0.0000
     0.0000   0.0000   0.0000   0.0000   0.0000   0.0000   0.0000   0.0000

          k = 0.1667 0.2887 0.0000 ( 17381 PWs)   bands (ev):

   -50.0765 -50.0765 -50.0129 -49.9854 -49.9525 -49.9481 -49.7982 -49.7982
   -49.3540 -49.3540 -26.5507 -26.5469 -26.5168 -26.4913 -26.4831 -26.4533
   -26.4080 -26.3424 -26.3057 -26.2776 -26.2754 -26.2428 -26.2193 -26.2174
   -26.1991 -26.1696 -26.1686 -26.1593 -26.1455 -26.1291 -26.1096 -26.0928
   -25.9988 -25.9988 -25.7183 -25.7183 -25.6622 -25.6622 -25.4992 -25.4992
    -8.1111  -8.0386  -7.9160  -7.8304  -7.7510  -7.5888  -7.4294  -7.3427
    -7.3107   1.1780   1.1882   1.2471   1.2574   1.3424   1.5373   1.7310
     1.8906   1.9928   2.0133   2.4444   2.6919   2.7676   2.8226   2.8997
     2.9450   2.9967   3.0446   3.1917   3.2172   3.2862   3.3359   3.3774
     3.5926   3.6931   3.7319   3.7472   6.7929   6.8326   7.0051   7.1050
     7.2474   7.3354   7.6314   7.6576   8.0070   8.1668   8.2583   8.3338
     8.6404   8.8917   9.0505   9.1443   9.1761   9.2063   9.3407   9.3790
     9.4456   9.5155   9.5533   9.6531   9.6987   9.7365   9.8792   9.9518
     9.9785  10.0475  10.0930  10.1065  10.1394  10.3760  10.5258  10.5857
    10.6142  10.6283  10.7727  11.0086  11.2852  11.8536  11.8852  12.1004

     occupation numbers 
     1.0000   1.0000   1.0000   1.0000   1.0000   1.0000   1.0000   1.0000
     1.0000   1.0000   1.0000   1.0000   1.0000   1.0000   1.0000   1.0000
     1.0000   1.0000   1.0000   1.0000   1.0000   1.0000   1.0000   1.0000
     1.0000   1.0000   1.0000   1.0000   1.0000   1.0000   1.0000   1.0000
     1.0000   1.0000   1.0000   1.0000   1.0000   1.0000   1.0000   1.0000
     1.0000   1.0000   1.0000   1.0000   1.0000   1.0000   1.0000   1.0000
     1.0000   1.0000   1.0000   1.0000   1.0000   1.0000   1.0000   1.0000
     1.0000   1.0000   1.0000   1.0000   1.0000   1.0000   1.0000   1.0000
     1.0000   1.0000   1.0000   1.0000   1.0000   1.0000   1.0000   1.0000
     1.0000   1.0000   1.0000   1.0000   1.0000   1.0000   1.0000   1.0000
     1.0000   1.0003   1.0637   1.0159   0.0025   0.0000   0.0000   0.0000
     0.0000   0.0000   0.0000   0.0000   0.0000   0.0000   0.0000   0.0000
     0.0000   0.0000   0.0000   0.0000   0.0000   0.0000   0.0000   0.0000
     0.0000   0.0000   0.0000   0.0000   0.0000   0.0000   0.0000   0.0000
     0.0000   0.0000   0.0000   0.0000   0.0000   0.0000   0.0000   0.0000

          k = 0.1667 0.3849 0.0000 ( 17421 PWs)   bands (ev):

   -50.0613 -50.0613 -49.9936 -49.9719 -49.9413 -49.9390 -49.7842 -49.7842
   -49.3411 -49.3411 -26.5867 -26.5818 -26.5392 -26.5269 -26.5039 -26.4943
   -26.4619 -26.3852 -26.3366 -26.3319 -26.3256 -26.2648 -26.2578 -26.2462
   -26.2322 -26.2208 -26.1964 -26.1774 -26.1692 -26.1380 -26.1247 -26.1112
   -26.0429 -26.0428 -25.7319 -25.7319 -25.7136 -25.7136 -25.5385 -25.5385
    -7.7178  -7.6947  -7.6292  -7.6100  -7.5912  -7.4931  -7.4004  -7.3274
    -7.3239   0.8998   1.0237   1.1914   1.2367   1.2728   1.3488   1.5275
     1.7317   2.0726   2.1434   2.4557   2.5496   2.6222   2.6850   2.7145
     2.7393   2.7946   2.8507   2.9659   3.0103   3.0599   3.1193   3.1294
     3.1682   3.2624   3.4336   3.6403   6.5809   6.6830   7.0093   7.3287
     7.4046   7.5285   7.7579   7.9691   8.0623   8.3621   8.5682   8.6931
     8.7186   9.0154   9.2058   9.3282   9.4870   9.5140   9.5687   9.6093
     9.6562   9.7052   9.7448   9.7914   9.8754  10.0033  10.0692  10.1114
    10.1416  10.1604  10.2407  10.2418  10.4844  10.6031  10.6604  10.8258
    10.9743  11.0562  11.1718  11.3173  11.4683  11.8084  11.9059  12.0169

     occupation numbers 
     1.0000   1.0000   1.0000   1.0000   1.0000   1.0000   1.0000   1.0000
     1.0000   1.0000   1.0000   1.0000   1.0000   1.0000   1.0000   1.0000
     1.0000   1.0000   1.0000   1.0000   1.0000   1.0000   1.0000   1.0000
     1.0000   1.0000   1.0000   1.0000   1.0000   1.0000   1.0000   1.0000
     1.0000   1.0000   1.0000   1.0000   1.0000   1.0000   1.0000   1.0000
     1.0000   1.0000   1.0000   1.0000   1.0000   1.0000   1.0000   1.0000
     1.0000   1.0000   1.0000   1.0000   1.0000   1.0000   1.0000   1.0000
     1.0000   1.0000   1.0000   1.0000   1.0000   1.0000   1.0000   1.0000
     1.0000   1.0000   1.0000   1.0000   1.0000   1.0000   1.0000   1.0000
     1.0000   1.0000   1.0000   1.0000   1.0000   1.0000   1.0000   1.0002
     1.0031   1.0490   0.5662   0.0085   0.0003   0.0000   0.0000   0.0000
     0.0000   0.0000   0.0000   0.0000   0.0000   0.0000   0.0000   0.0000
     0.0000   0.0000   0.0000   0.0000   0.0000   0.0000   0.0000   0.0000
     0.0000   0.0000   0.0000   0.0000   0.0000   0.0000   0.0000   0.0000
     0.0000   0.0000   0.0000   0.0000   0.0000   0.0000   0.0000   0.0000

          k = 0.1667-0.6736 0.0000 ( 17428 PWs)   bands (ev):

   -50.0502 -50.0502 -49.9779 -49.9629 -49.9333 -49.9326 -49.7739 -49.7739
   -49.3317 -49.3317 -26.6459 -26.6371 -26.5891 -26.5484 -26.5364 -26.5219
   -26.4264 -26.4069 -26.3718 -26.3632 -26.3415 -26.2961 -26.2936 -26.2687
   -26.2641 -26.2384 -26.2137 -26.1904 -26.1734 -26.1426 -26.1300 -26.1276
   -26.0738 -26.0737 -25.7791 -25.7791 -25.7124 -25.7124 -25.5681 -25.5681
    -7.6652  -7.6233  -7.5441  -7.5104  -7.4624  -7.3288  -7.2074  -7.1346
    -7.1244   0.4201   0.5741   0.8026   1.0137   1.2198   1.4697   1.7233
     1.9330   2.0611   2.3215   2.3455   2.4252   2.5163   2.5581   2.6358
     2.6648   2.6923   2.7474   2.7580   2.7757   2.8400   2.9219   3.0079
     3.0227   3.0768   3.4015   3.6863   6.4136   6.5433   6.8912   7.3277
     7.6756   7.7189   7.9090   8.4098   8.4462   8.6300   8.8489   8.9468
     9.0530   9.1400   9.3004   9.4315   9.5415   9.5846   9.6900   9.7736
     9.8058   9.8509   9.9017   9.9522  10.0123  10.0572  10.1222  10.1604
    10.1732  10.1760  10.3857  10.3858  10.5787  10.6004  10.7341  10.9405
    11.1174  11.2788  11.4940  11.5926  11.6724  11.8210  11.8970  12.1255

     occupation numbers 
     1.0000   1.0000   1.0000   1.0000   1.0000   1.0000   1.0000   1.0000
     1.0000   1.0000   1.0000   1.0000   1.0000   1.0000   1.0000   1.0000
     1.0000   1.0000   1.0000   1.0000   1.0000   1.0000   1.0000   1.0000
     1.0000   1.0000   1.0000   1.0000   1.0000   1.0000   1.0000   1.0000
     1.0000   1.0000   1.0000   1.0000   1.0000   1.0000   1.0000   1.0000
     1.0000   1.0000   1.0000   1.0000   1.0000   1.0000   1.0000   1.0000
     1.0000   1.0000   1.0000   1.0000   1.0000   1.0000   1.0000   1.0000
     1.0000   1.0000   1.0000   1.0000   1.0000   1.0000   1.0000   1.0000
     1.0000   1.0000   1.0000   1.0000   1.0000   1.0000   1.0000   1.0000
     1.0000   1.0000   1.0000   1.0000   1.0000   1.0000   1.0000   1.0002
     0.9634   0.7773   0.0442   0.0000   0.0000   0.0000   0.0000   0.0000
     0.0000   0.0000   0.0000   0.0000   0.0000   0.0000   0.0000   0.0000
     0.0000   0.0000   0.0000   0.0000   0.0000   0.0000   0.0000   0.0000
     0.0000   0.0000   0.0000   0.0000   0.0000   0.0000   0.0000   0.0000
     0.0000   0.0000   0.0000   0.0000   0.0000   0.0000   0.0000   0.0000

          k = 0.1667-0.5774 0.0000 ( 17399 PWs)   bands (ev):

   -50.0461 -50.0461 -49.9713 -49.9603 -49.9305 -49.9302 -49.7701 -49.7701
   -49.3282 -49.3282 -26.6689 -26.6587 -26.6095 -26.5552 -26.5458 -26.5364
   -26.4234 -26.4191 -26.3742 -26.3718 -26.3384 -26.3265 -26.3025 -26.2721
   -26.2619 -26.2529 -26.2111 -26.2023 -26.1715 -26.1531 -26.1304 -26.1300
   -26.0845 -26.0845 -25.7963 -25.7963 -25.7117 -25.7117 -25.5790 -25.5790
    -7.6871  -7.6315  -7.5368  -7.4854  -7.4162  -7.2550  -7.1067  -7.0252
    -7.0034   0.2118   0.3889   0.6592   0.9384   1.2292   1.5532   1.8061
     1.9416   2.0004   2.3370   2.3805   2.4113   2.4570   2.5060   2.5479
     2.5796   2.6097   2.6538   2.7240   2.7540   2.8436   2.8604   2.9496
     2.9847   3.0814   3.4143   3.7189   6.3607   6.4981   6.8495   7.2930
     7.7686   7.8506   7.9164   8.3915   8.8443   9.0681   9.0713   9.0986
     9.1037   9.3277   9.3555   9.4560   9.4875   9.5070   9.6161   9.7411
     9.8502   9.9090   9.9214   9.9595  10.0045  10.0302  10.1151  10.1627
    10.1668  10.1715  10.4589  10.4590  10.5596  10.6145  10.7735  10.9841
    11.1303  11.2885  11.5102  11.5832  11.6989  11.9129  11.9781  12.2318

     occupation numbers 
     1.0000   1.0000   1.0000   1.0000   1.0000   1.0000   1.0000   1.0000
     1.0000   1.0000   1.0000   1.0000   1.0000   1.0000   1.0000   1.0000
     1.0000   1.0000   1.0000   1.0000   1.0000   1.0000   1.0000   1.0000
     1.0000   1.0000   1.0000   1.0000   1.0000   1.0000   1.0000   1.0000
     1.0000   1.0000   1.0000   1.0000   1.0000   1.0000   1.0000   1.0000
     1.0000   1.0000   1.0000   1.0000   1.0000   1.0000   1.0000   1.0000
     1.0000   1.0000   1.0000   1.0000   1.0000   1.0000   1.0000   1.0000
     1.0000   1.0000   1.0000   1.0000   1.0000   1.0000   1.0000   1.0000
     1.0000   1.0000   1.0000   1.0000   1.0000   1.0000   1.0000   1.0000
     1.0000   1.0000   1.0000   1.0000   1.0000   1.0000   1.0000   1.0001
     0.5078   0.1542   0.0368   0.0000   0.0000   0.0000   0.0000   0.0000
     0.0000   0.0000   0.0000   0.0000   0.0000   0.0000   0.0000   0.0000
     0.0000   0.0000   0.0000   0.0000   0.0000   0.0000   0.0000   0.0000
     0.0000   0.0000   0.0000   0.0000   0.0000   0.0000   0.0000   0.0000
     0.0000   0.0000   0.0000   0.0000   0.0000   0.0000   0.0000   0.0000

          k = 0.2500-0.7217 0.0000 ( 17473 PWs)   bands (ev):

   -50.0502 -50.0502 -49.9780 -49.9629 -49.9333 -49.9326 -49.7739 -49.7739
   -49.3317 -49.3317 -26.6052 -26.6018 -26.5584 -26.5441 -26.5305 -26.4894
   -26.4429 -26.4131 -26.3883 -26.3761 -26.3578 -26.2898 -26.2850 -26.2778
   -26.2535 -26.2489 -26.2301 -26.2097 -26.1752 -26.1419 -26.1326 -26.1323
   -26.0986 -26.0977 -25.7550 -25.7550 -25.7138 -25.7138 -25.5929 -25.5929
    -7.4911  -7.4908  -7.4727  -7.4727  -7.4320  -7.3979  -7.3751  -7.2459
    -7.2459   0.8631   0.8949   0.9928   1.0932   1.2097   1.4171   1.6723
     1.9290   2.1849   2.3345   2.3533   2.4129   2.4401   2.4609   2.5112
     2.5125   2.5846   2.6473   2.6519   2.7037   2.7648   2.9070   2.9152
     3.0590   3.0938   3.1717   3.2029   7.0378   7.0444   7.4147   7.4500
     7.5888   7.6548   7.9044   7.9929   8.3089   8.4203   8.6567   8.9283
     8.9936   9.0288   9.2381   9.4923   9.5326   9.5544   9.6769   9.6941
     9.7001   9.7863   9.8229   9.8933   9.9995  10.0812  10.1292  10.1458
    10.1592  10.1708  10.3840  10.3841  10.8150  10.9547  11.0019  11.0979
    11.2330  11.3371  11.4443  11.6563  11.6937  11.7217  11.7971  11.8659

     occupation numbers 
     1.0000   1.0000   1.0000   1.0000   1.0000   1.0000   1.0000   1.0000
     1.0000   1.0000   1.0000   1.0000   1.0000   1.0000   1.0000   1.0000
     1.0000   1.0000   1.0000   1.0000   1.0000   1.0000   1.0000   1.0000
     1.0000   1.0000   1.0000   1.0000   1.0000   1.0000   1.0000   1.0000
     1.0000   1.0000   1.0000   1.0000   1.0000   1.0000   1.0000   1.0000
     1.0000   1.0000   1.0000   1.0000   1.0000   1.0000   1.0000   1.0000
     1.0000   1.0000   1.0000   1.0000   1.0000   1.0000   1.0000   1.0000
     1.0000   1.0000   1.0000   1.0000   1.0000   1.0000   1.0000   1.0000
     1.0000   1.0000   1.0000   1.0000   1.0000   1.0000   1.0000   1.0000
     1.0000   1.0000   1.0000   1.0000   1.0000   1.0000   1.0042   1.0107
     1.0826   1.0225   0.0494   0.0040   0.0000   0.0000   0.0000   0.0000
     0.0000   0.0000   0.0000   0.0000   0.0000   0.0000   0.0000   0.0000
     0.0000   0.0000   0.0000   0.0000   0.0000   0.0000   0.0000   0.0000
     0.0000   0.0000   0.0000   0.0000   0.0000   0.0000   0.0000   0.0000
     0.0000   0.0000   0.0000   0.0000   0.0000   0.0000   0.0000   0.0000

          k = 0.2500-0.6255 0.0000 ( 17403 PWs)   bands (ev):

   -50.0438 -50.0438 -49.9672 -49.9592 -49.9289 -49.9288 -49.7679 -49.7679
   -49.3262 -49.3262 -26.6144 -26.6071 -26.5625 -26.5365 -26.5216 -26.4963
   -26.4578 -26.4533 -26.4105 -26.3896 -26.3743 -26.3411 -26.3204 -26.2947
   -26.2532 -26.2457 -26.2323 -26.2100 -26.1874 -26.1705 -26.1534 -26.1511
   -26.1147 -26.1145 -25.7646 -25.7646 -25.7119 -25.7119 -25.6317 -25.6317
    -7.4898  -7.4708  -7.4259  -7.4181  -7.3828  -7.2855  -7.2099  -7.1251
    -7.1244   0.7135   0.8199   0.9853   1.1349   1.2911   1.5018   1.7072
     1.8765   2.0369   2.1111   2.2325   2.2734   2.3309   2.3487   2.3995
     2.4400   2.4893   2.5198   2.6328   2.6795   2.7477   2.7598   2.8226
     2.8430   2.9275   3.1127   3.2531   7.1254   7.1391   7.4792   7.6733
     7.7492   7.9252   8.3159   8.3586   8.5534   8.6876   8.8691   8.9366
     9.1120   9.1837   9.2775   9.3149   9.3552   9.4399   9.4990   9.6351
     9.6873   9.8002   9.8086   9.8887   9.9997  10.0257  10.1040  10.1182
    10.1386  10.1571  10.4555  10.4557  11.0157  11.0450  11.1532  11.1960
    11.3539  11.4174  11.5451  11.6499  11.7183  11.7917  11.9135  11.9541

     occupation numbers 
     1.0000   1.0000   1.0000   1.0000   1.0000   1.0000   1.0000   1.0000
     1.0000   1.0000   1.0000   1.0000   1.0000   1.0000   1.0000   1.0000
     1.0000   1.0000   1.0000   1.0000   1.0000   1.0000   1.0000   1.0000
     1.0000   1.0000   1.0000   1.0000   1.0000   1.0000   1.0000   1.0000
     1.0000   1.0000   1.0000   1.0000   1.0000   1.0000   1.0000   1.0000
     1.0000   1.0000   1.0000   1.0000   1.0000   1.0000   1.0000   1.0000
     1.0000   1.0000   1.0000   1.0000   1.0000   1.0000   1.0000   1.0000
     1.0000   1.0000   1.0000   1.0000   1.0000   1.0000   1.0000   1.0000
     1.0000   1.0000   1.0000   1.0000   1.0000   1.0000   1.0000   1.0000
     1.0000   1.0000   1.0000   1.0000   1.0000   1.0000   1.0207   0.9711
     0.6148   0.0294   0.0000   0.0000   0.0000   0.0000   0.0000   0.0000
     0.0000   0.0000   0.0000   0.0000   0.0000   0.0000   0.0000   0.0000
     0.0000   0.0000   0.0000   0.0000   0.0000   0.0000   0.0000   0.0000
     0.0000   0.0000   0.0000   0.0000   0.0000   0.0000   0.0000   0.0000
     0.0000   0.0000   0.0000   0.0000   0.0000   0.0000   0.0000   0.0000

          k = 0.3333-0.5774 0.0000 ( 17397 PWs)   bands (ev):

   -50.0414 -50.0414 -49.9606 -49.9606 -49.9274 -49.9273 -49.7657 -49.7657
   -49.3242 -49.3242 -26.5550 -26.5550 -26.5531 -26.5438 -26.5157 -26.5157
   -26.4974 -26.4460 -26.4460 -26.3988 -26.3894 -26.3894 -26.3097 -26.3097
   -26.2498 -26.2478 -26.2081 -26.2081 -26.1960 -26.1948 -26.1948 -26.1825
   -26.1145 -26.1145 -25.7450 -25.7450 -25.7118 -25.7118 -25.6702 -25.6702
    -7.3809  -7.3809  -7.3805  -7.3805  -7.3045  -7.2947  -7.2947  -7.1369
    -7.1369   1.2268   1.2311   1.2693   1.2693   1.3209   1.3209   1.3403
     1.3403   1.8762   1.8763   2.2157   2.2445   2.2445   2.2776   2.3364
     2.3364   2.3703   2.3703   2.7844   2.7844   2.8027   2.8392   2.8392
     2.8726   2.8913   2.8913   2.8923   7.3854   7.3854   7.7961   7.7961
     8.3082   8.3507   8.3507   8.4042   8.5492   8.5492   8.5846   8.9457
     8.9457   8.9795   9.1913   9.2443   9.2443   9.4564   9.4564   9.4733
     9.5579   9.7037   9.7037  10.0183  10.0183  10.0352  10.0835  10.0835
    10.1193  10.1331  10.4656  10.4656  11.2497  11.2693  11.2693  11.3380
    11.3807  11.3807  11.4368  11.5531  11.5531  12.2501  12.2501  12.2696

     occupation numbers 
     1.0000   1.0000   1.0000   1.0000   1.0000   1.0000   1.0000   1.0000
     1.0000   1.0000   1.0000   1.0000   1.0000   1.0000   1.0000   1.0000
     1.0000   1.0000   1.0000   1.0000   1.0000   1.0000   1.0000   1.0000
     1.0000   1.0000   1.0000   1.0000   1.0000   1.0000   1.0000   1.0000
     1.0000   1.0000   1.0000   1.0000   1.0000   1.0000   1.0000   1.0000
     1.0000   1.0000   1.0000   1.0000   1.0000   1.0000   1.0000   1.0000
     1.0000   1.0000   1.0000   1.0000   1.0000   1.0000   1.0000   1.0000
     1.0000   1.0000   1.0000   1.0000   1.0000   1.0000   1.0000   1.0000
     1.0000   1.0000   1.0000   1.0000   1.0000   1.0000   1.0000   1.0000
     1.0000   1.0000   1.0000   1.0000   1.0017   1.0017   0.3652   0.3652
     0.0000   0.0000   0.0000   0.0000   0.0000   0.0000   0.0000   0.0000
     0.0000   0.0000   0.0000   0.0000   0.0000   0.0000   0.0000   0.0000
     0.0000   0.0000   0.0000   0.0000   0.0000   0.0000   0.0000   0.0000
     0.0000   0.0000   0.0000   0.0000   0.0000   0.0000   0.0000   0.0000
     0.0000   0.0000   0.0000   0.0000   0.0000   0.0000   0.0000   0.0000

     the Fermi energy is     7.7890 ev

!    total energy              =   -1383.70587475 Ry
     estimated scf accuracy    <          5.3E-12 Ry
     smearing contrib. (-TS)   =      -0.00039909 Ry
     internal energy E=F+TS    =   -1383.70547566 Ry

     The total energy is F=E-TS. E is the sum of the following terms:
     one-electron contribution =  -31121.82845570 Ry
     hartree contribution      =   15599.13135036 Ry
     xc contribution           =    -238.31881673 Ry
     ewald contribution        =   14377.31044640 Ry

     convergence has been achieved in  14 iterations

     negative rho (up, down):  2.204E-04 0.000E+00

     Forces acting on atoms (cartesian axes, Ry/au):

     atom    1 type  1   force =    -0.00000000   -0.00000000    0.00014365
     atom    2 type  2   force =     0.00000000    0.00000000    0.00028500
     atom    3 type  1   force =    -0.00000000   -0.00000000   -0.00040922
     atom    4 type  2   force =     0.00000000    0.00000000   -0.00015414
     atom    5 type  1   force =     0.00000000    0.00000000   -0.00032008
     atom    6 type  2   force =     0.00000000    0.00000000   -0.00067073
     atom    7 type  1   force =     0.00000000    0.00000000   -0.00765652
     atom    8 type  2   force =     0.00000000    0.00000000    0.00255831
     atom    9 type  1   force =    -0.00000000    0.00000000    0.00673378
     atom   10 type  2   force =     0.00000000    0.00000000    0.00000000
     atom   11 type  1   force =     0.00000000   -0.00000000   -0.00673378
     atom   12 type  2   force =    -0.00000000    0.00000000   -0.00255831
     atom   13 type  1   force =     0.00000000    0.00000000    0.00765652
     atom   14 type  2   force =    -0.00000000    0.00000000    0.00067073
     atom   15 type  1   force =     0.00000000    0.00000000    0.00032008
     atom   16 type  2   force =     0.00000000    0.00000000    0.00015414
     atom   17 type  1   force =     0.00000000    0.00000000    0.00040922
     atom   18 type  2   force =     0.00000000    0.00000000   -0.00028500
     atom   19 type  1   force =    -0.00000000    0.00000000   -0.00014365
     The non-local contrib.  to forces
     atom    1 type  1   force =     0.00000000    0.00000000    0.05621497
     atom    2 type  2   force =     0.00000000   -0.00000000    0.03926671
     atom    3 type  1   force =    -0.00000000   -0.00000000   -0.02213550
     atom    4 type  2   force =     0.00000000   -0.00000000    0.00737194
     atom    5 type  1   force =     0.00000000    0.00000000    0.01181890
     atom    6 type  2   force =     0.00000000    0.00000000   -0.00178983
     atom    7 type  1   force =     0.00000000   -0.00000000   -0.00480469
     atom    8 type  2   force =     0.00000000    0.00000000   -0.00154009
     atom    9 type  1   force =     0.00000000   -0.00000000    0.00213235
     atom   10 type  2   force =     0.00000000    0.00000000    0.00000000
     atom   11 type  1   force =     0.00000000    0.00000000   -0.00213235
     atom   12 type  2   force =    -0.00000000   -0.00000000    0.00154009
     atom   13 type  1   force =     0.00000000    0.00000000    0.00480469
     atom   14 type  2   force =     0.00000000    0.00000000    0.00178983
     atom   15 type  1   force =     0.00000000   -0.00000000   -0.01181890
     atom   16 type  2   force =     0.00000000    0.00000000   -0.00737194
     atom   17 type  1   force =    -0.00000000    0.00000000    0.02213550
     atom   18 type  2   force =     0.00000000    0.00000000   -0.03926671
     atom   19 type  1   force =     0.00000000    0.00000000   -0.05621497
     The ionic contribution  to forces
     atom    1 type  1   force =     0.00000000   -0.00000000 -357.84799189
     atom    2 type  2   force =    -0.00000000    0.00000000 -133.48944935
     atom    3 type  1   force =     0.00000000   -0.00000000 -278.76772692
     atom    4 type  2   force =    -0.00000000   -0.00000000  -99.81834593
     atom    5 type  1   force =    -0.00000000    0.00000000 -200.27613068
     atom    6 type  2   force =     0.00000000   -0.00000000  -66.76658439
     atom    7 type  1   force =    -0.00000000   -0.00000000 -119.94853432
     atom    8 type  2   force =    -0.00000000    0.00000000  -33.32255435
     atom    9 type  1   force =     0.00000000   -0.00000000  -39.98998815
     atom   10 type  2   force =    -0.00000000   -0.00000000    0.00000000
     atom   11 type  1   force =    -0.00000000    0.00000000   39.98998815
     atom   12 type  2   force =     0.00000000   -0.00000000   33.32255435
     atom   13 type  1   force =    -0.00000000   -0.00000000  119.94853432
     atom   14 type  2   force =    -0.00000000    0.00000000   66.76658439
     atom   15 type  1   force =     0.00000000   -0.00000000  200.27613068
     atom   16 type  2   force =    -0.00000000   -0.00000000   99.81834593
     atom   17 type  1   force =    -0.00000000    0.00000000  278.76772692
     atom   18 type  2   force =     0.00000000   -0.00000000  133.48944935
     atom   19 type  1   force =    -0.00000000    0.00000000  357.84799189
     The local contribution  to forces
     atom    1 type  1   force =     0.00000000   -0.00000000  357.80355540
     atom    2 type  2   force =    -0.00000001    0.00000001  133.45148341
     atom    3 type  1   force =     0.00000006   -0.00000004  278.78838825
     atom    4 type  2   force =     0.00000000   -0.00000000   99.81084901
     atom    5 type  1   force =    -0.00000005    0.00000006  200.26460542
     atom    6 type  2   force =     0.00000001   -0.00000001   66.76780384
     atom    7 type  1   force =     0.00000000   -0.00000000  119.94586621
     atom    8 type  2   force =    -0.00000001    0.00000001   33.32660430
     atom    9 type  1   force =     0.00000006   -0.00000004   39.99469945
     atom   10 type  2   force =     0.00000000    0.00000000    0.00000000
     atom   11 type  1   force =    -0.00000005    0.00000006  -39.99469945
     atom   12 type  2   force =     0.00000001   -0.00000001  -33.32660430
     atom   13 type  1   force =     0.00000000    0.00000000 -119.94586621
     atom   14 type  2   force =    -0.00000001    0.00000001  -66.76780384
     atom   15 type  1   force =     0.00000006   -0.00000004 -200.26460542
     atom   16 type  2   force =    -0.00000000    0.00000000  -99.81084901
     atom   17 type  1   force =    -0.00000005    0.00000006 -278.78838825
     atom   18 type  2   force =     0.00000001   -0.00000001 -133.45148341
     atom   19 type  1   force =    -0.00000000    0.00000000 -357.80355540
     The core correction contribution to forces
     atom    1 type  1   force =    -0.00000000    0.00000000   -0.01163092
     atom    2 type  2   force =     0.00000000   -0.00000000   -0.00101369
     atom    3 type  1   force =    -0.00000000    0.00000000    0.00107064
     atom    4 type  2   force =     0.00000000   -0.00000000   -0.00002877
     atom    5 type  1   force =     0.00000000   -0.00000000   -0.00061604
     atom    6 type  2   force =    -0.00000000    0.00000000   -0.00010201
     atom    7 type  1   force =     0.00000000   -0.00000000   -0.00018655
     atom    8 type  2   force =     0.00000000   -0.00000000    0.00004730
     atom    9 type  1   force =    -0.00000000    0.00000000   -0.00011075
     atom   10 type  2   force =     0.00000000    0.00000000   -0.00000000
     atom   11 type  1   force =     0.00000000   -0.00000000    0.00011075
     atom   12 type  2   force =    -0.00000000    0.00000000   -0.00004730
     atom   13 type  1   force =    -0.00000000    0.00000000    0.00018655
     atom   14 type  2   force =     0.00000000   -0.00000000    0.00010201
     atom   15 type  1   force =    -0.00000000    0.00000000    0.00061604
     atom   16 type  2   force =    -0.00000000    0.00000000    0.00002877
     atom   17 type  1   force =     0.00000000   -0.00000000   -0.00107064
     atom   18 type  2   force =    -0.00000000    0.00000000    0.00101369
     atom   19 type  1   force =     0.00000000   -0.00000000    0.01163092
     The Hubbard contrib.    to forces
     atom    1 type  1   force =     0.00000000    0.00000000    0.00000000
     atom    2 type  2   force =     0.00000000    0.00000000    0.00000000
     atom    3 type  1   force =     0.00000000    0.00000000    0.00000000
     atom    4 type  2   force =     0.00000000    0.00000000    0.00000000
     atom    5 type  1   force =     0.00000000    0.00000000    0.00000000
     atom    6 type  2   force =     0.00000000    0.00000000    0.00000000
     atom    7 type  1   force =     0.00000000    0.00000000    0.00000000
     atom    8 type  2   force =     0.00000000    0.00000000    0.00000000
     atom    9 type  1   force =     0.00000000    0.00000000    0.00000000
     atom   10 type  2   force =     0.00000000    0.00000000    0.00000000
     atom   11 type  1   force =     0.00000000    0.00000000    0.00000000
     atom   12 type  2   force =     0.00000000    0.00000000    0.00000000
     atom   13 type  1   force =     0.00000000    0.00000000    0.00000000
     atom   14 type  2   force =     0.00000000    0.00000000    0.00000000
     atom   15 type  1   force =     0.00000000    0.00000000    0.00000000
     atom   16 type  2   force =     0.00000000    0.00000000    0.00000000
     atom   17 type  1   force =     0.00000000    0.00000000    0.00000000
     atom   18 type  2   force =     0.00000000    0.00000000    0.00000000
     atom   19 type  1   force =     0.00000000    0.00000000    0.00000000
     The SCF correction term to forces
     atom    1 type  1   force =     0.00000000   -0.00000000   -0.00000391
     atom    2 type  2   force =    -0.00000000   -0.00000000   -0.00000208
     atom    3 type  1   force =     0.00000000   -0.00000000   -0.00000568
     atom    4 type  2   force =     0.00000000   -0.00000000   -0.00000038
     atom    5 type  1   force =    -0.00000000    0.00000000    0.00000233
     atom    6 type  2   force =    -0.00000000    0.00000000    0.00000166
     atom    7 type  1   force =    -0.00000000    0.00000000    0.00000000
     atom    8 type  2   force =    -0.00000000    0.00000000    0.00000000
     atom    9 type  1   force =     0.00000000   -0.00000000    0.00000000
     atom   10 type  2   force =     0.00000000   -0.00000000   -0.00000000
     atom   11 type  1   force =    -0.00000000   -0.00000000   -0.00000000
     atom   12 type  2   force =    -0.00000000    0.00000000   -0.00000000
     atom   13 type  1   force =     0.00000000    0.00000000   -0.00000000
     atom   14 type  2   force =     0.00000000   -0.00000000   -0.00000166
     atom   15 type  1   force =     0.00000000   -0.00000000   -0.00000233
     atom   16 type  2   force =    -0.00000000    0.00000000    0.00000038
     atom   17 type  1   force =    -0.00000000   -0.00000000    0.00000568
     atom   18 type  2   force =     0.00000000    0.00000000    0.00000208
     atom   19 type  1   force =    -0.00000000    0.00000000    0.00000391

     Total force =     0.001300     Total SCF correction =     0.000011


     Computing stress (Cartesian axis) and pressure


     negative rho (up, down):  2.204E-04 0.000E+00
          total   stress  (Ry/bohr**3)                   (kbar)     P=        2.48
   0.00002170   0.00000000  -0.00000000            3.19        0.00       -0.00
   0.00000000   0.00002170  -0.00000000            0.00        3.19       -0.00
   0.00000000   0.00000000   0.00000710            0.00        0.00        1.04

     kinetic stress (kbar)  23061.40      0.00      0.00
                                0.00  23061.40      0.00
                                0.00      0.00  22971.75

     local   stress (kbar)**********      0.00     -0.00
                                0.00**********      0.00
                               -0.00      0.002050941.13

     nonloc. stress (kbar)      0.78      0.00      0.00
                                0.00      0.78      0.00
                                0.00     -0.00     41.38

     hartree stress (kbar)1026531.75      0.00     -0.00
                                0.001026531.75     -0.00
                               -0.00     -0.00**********

     exc-cor stress (kbar)  -1520.90     -0.00     -0.00
                               -0.00  -1520.90      0.00
                               -0.00      0.00  -1524.45

     corecor stress (kbar)  -3162.15      0.00     -0.00
                                0.00  -3162.15      0.00
                               -0.00      0.00  -3161.82

     ewald   stress (kbar)1004282.70     -0.00      0.00
                               -0.001004282.70     -0.00
                                0.00     -0.00**********

     hubbard stress (kbar)      0.00      0.00      0.00
                                0.00      0.00      0.00
                                0.00      0.00      0.00

     DFT-D   stress (kbar)      0.00      0.00      0.00
                                0.00      0.00      0.00
                                0.00      0.00      0.00

     XDM     stress (kbar)      0.00      0.00      0.00
                                0.00      0.00      0.00
                                0.00      0.00      0.00

     dft-nl  stress (kbar)      0.00      0.00      0.00
                                0.00      0.00      0.00
                                0.00      0.00      0.00

     TS-vdW  stress (kbar)      0.00      0.00      0.00
                                0.00      0.00      0.00
                                0.00      0.00      0.00


     Energy error            =      6.2E-06
     Gradient error          =      6.7E-04

     bfgs converged in   7 scf cycles and   6 bfgs steps
     (criteria: energy <  1.0E-05 Ry, force <  1.0E-03 Ry/Bohr)

     End of BFGS Geometry Optimization

     Final energy   =   -1383.7058747533 Ry

     File ./tmp/tin111.bfgs deleted, as requested
Begin final coordinates

ATOMIC_POSITIONS (angstrom)
Ti           -0.0000000000       -0.0000000000       10.0733509076
N             1.5004805900        0.8663028720       11.1735403322
Ti            3.0009611790        1.7326057450       12.4150408070
N            -0.0000000000        0.0000000000       13.6718407266
Ti            1.5004805900        0.8663028720       14.9176656055
N             3.0009611790        1.7326057450       16.1200562025
Ti            0.0000000000        0.0000000000       17.3508236270    0   0   0
N             1.5004805900        0.8663028720       18.5759608990    0   0   0
Ti            3.0009611790        1.7326057450       19.8010981700    0   0   0
N             0.0000000000        0.0000000000       21.0262354410    0   0   0
Ti            1.5004805900        0.8663028720       22.2513727120    0   0   0
N             3.0009611790        1.7326057450       23.4765099830    0   0   0
Ti            0.0000000000        0.0000000000       24.7016472550    0   0   0
N             1.5004805900        0.8663028720       25.9324146795
Ti            3.0009611790        1.7326057450       27.1348052765
N             0.0000000000       -0.0000000000       28.3806301554
Ti            1.5004805900        0.8663028720       29.6374300750
N             3.0009611790        1.7326057450       30.8789305498
Ti            0.0000000000        0.0000000000       31.9791199744
End final coordinates



     Writing output data file ./tmp/tin111.save/

     init_run     :      8.96s CPU      9.17s WALL (       1 calls)
     electrons    :   2374.54s CPU   2393.67s WALL (       7 calls)
     update_pot   :      4.66s CPU      4.66s WALL (       6 calls)
     forces       :     45.04s CPU     45.68s WALL (       7 calls)
     stress       :     60.16s CPU     60.82s WALL (       7 calls)

     Called by init_run:
     wfcinit      :      7.81s CPU      7.87s WALL (       1 calls)
     wfcinit:atom :      0.02s CPU      0.02s WALL (      19 calls)
     wfcinit:wfcr :      7.69s CPU      7.74s WALL (      19 calls)
     potinit      :      0.27s CPU      0.29s WALL (       1 calls)
     hinit0       :      0.47s CPU      0.48s WALL (       1 calls)

     Called by electrons:
     c_bands      :   2141.07s CPU   2148.33s WALL (     108 calls)
     sum_band     :    202.96s CPU    210.83s WALL (     108 calls)
     v_of_rho     :      3.60s CPU      3.78s WALL (     112 calls)
     v_h          :      0.21s CPU      0.24s WALL (     112 calls)
     v_xc         :      3.83s CPU      4.02s WALL (     126 calls)
     newd         :     27.85s CPU     31.90s WALL (     112 calls)
     mix_rho      :      0.48s CPU      0.51s WALL (     108 calls)

     Called by c_bands:
     init_us_2    :      5.47s CPU      5.53s WALL (    4389 calls)
     cegterg      :   2109.74s CPU   2116.89s WALL (    2052 calls)

     Called by sum_band:
     sum_band:wei :      0.14s CPU      0.15s WALL (     108 calls)
     sum_band:loo :    184.53s CPU    185.71s WALL (     108 calls)
     sum_band:buf :      1.85s CPU      1.86s WALL (    2052 calls)
     sum_band:ini :      2.14s CPU      2.16s WALL (    2052 calls)
     sum_band:cal :    128.37s CPU    128.98s WALL (    2052 calls)
     sum_band:bec :      1.26s CPU      1.27s WALL (    2052 calls)
     addusdens    :     14.68s CPU     21.28s WALL (     108 calls)
     addusd:skk   :      0.19s CPU      0.24s WALL (     216 calls)
     addusd:dgemm :      8.94s CPU     15.31s WALL (     216 calls)
     addusd:qvan2 :      4.94s CPU      4.94s WALL (     216 calls)

     Called by *egterg:
     cdiaghg      :    129.75s CPU    131.14s WALL (    7907 calls)
     cegterg:over :    374.58s CPU    374.98s WALL (    6026 calls)
     cegterg:upda :    152.06s CPU    152.46s WALL (    6026 calls)
     cegterg:last :    366.31s CPU    367.17s WALL (    3696 calls)
     cdiaghg:chol :      7.84s CPU      7.85s WALL (    7907 calls)
     cdiaghg:inve :      7.59s CPU      7.60s WALL (    7907 calls)
     cdiaghg:para :     27.30s CPU     27.92s WALL (   15814 calls)
     h_psi        :    726.78s CPU    730.72s WALL (    8097 calls)
     s_psi        :    175.15s CPU    175.20s WALL (    8097 calls)
     g_psi        :      2.47s CPU      2.47s WALL (    6026 calls)

     Called by h_psi:
     h_psi:calbec :    298.01s CPU    299.46s WALL (    8097 calls)
     vloc_psi     :    250.42s CPU    252.86s WALL (    8097 calls)
     add_vuspsi   :    176.74s CPU    176.82s WALL (    8097 calls)

     General routines
     calbec       :    483.47s CPU    485.74s WALL (   10814 calls)
     fft          :      4.11s CPU      4.30s WALL (    1626 calls)
     ffts         :      0.12s CPU      0.12s WALL (     220 calls)
     fftw         :    281.24s CPU    284.01s WALL ( 1347976 calls)
     interpolate  :      0.21s CPU      0.23s WALL (     112 calls)

     Parallel routines
     fft_scatt_xy :     22.23s CPU     22.47s WALL ( 1349822 calls)
     fft_scatt_yz :    148.94s CPU    150.42s WALL ( 1349822 calls)

     PWSCF        :  41m35.53s CPU  41m56.83s WALL


   This run was terminated on:   3:46:39  19Sep2026            

=------------------------------------------------------------------------------=
   JOB DONE.
=------------------------------------------------------------------------------=
