
     Program PWSCF v.6.7MaX starts on 19Sep2026 at  3:48: 9 

     This program is part of the open-source Quantum ESPRESSO suite
     for quantum simulation of materials; please cite
         "P. Giannozzi et al., J. Phys.:Condens. Matter 21 395502 (2009);
         "P. Giannozzi et al., J. Phys.:Condens. Matter 29 465901 (2017);
          URL http://www.quantum-espresso.org", 
     in publications or presentations arising from this work. More details at
     http://www.quantum-espresso.org/quote

     Parallel version (MPI), running on    24 processors

     MPI processes distributed on     1 nodes
     R & G space division:  proc/nbgrp/npool/nimage =      24
     Reading input from 02_tin111_scf.in

     Current dimensions of program PWSCF are:
     Max number of different atomic species (ntypx) = 10
     Max number of k-points (npk) =  40000
     Max angular momentum in pseudopotentials (lmaxx) =  3
     file Ti.pbe-spn-rrkjus_psl.1.0.0.UPF: wavefunction(s)  3S 3D renormalized

     IMPORTANT: XC functional enforced from input :
     Exchange-correlation= PBE
                           (   1   4   3   4   0   0   0)
     Any further DFT definition will be discarded
     Please, verify this is what you really want


     Subspace diagonalization in iterative solution of the eigenvalue problem:
     one sub-group per band group will be used
     scalapack distributed-memory algorithm (size of sub-group:  4*  4 procs)

     Message from routine setup:
     using ibrav=0 with symmetry is DISCOURAGED, use correct ibrav instead

     Parallelization info
     --------------------
     sticks:   dense  smooth     PW     G-vecs:    dense   smooth      PW
     Min          55      21      6                22861     5727     946
     Max          56      22      7                22910     5804    1023
     Sum        1333     517    163               549067   138223   23767



     bravais-lattice index     =            0
     lattice parameter (alat)  =       5.6710  a.u.
     unit-cell volume          =    2213.2960 (a.u.)^3
     number of atoms/cell      =           19
     number of atomic types    =            2
     number of electrons       =       165.00
     number of Kohn-Sham states=          120
     kinetic-energy cutoff     =      60.0000  Ry
     charge density cutoff     =     600.0000  Ry
     scf convergence threshold =      1.0E-10
     mixing beta               =       0.2000
     number of iterations used =            8  plain     mixing
     Exchange-correlation= PBE
                           (   1   4   3   4   0   0   0)

     celldm(1)=   5.670995  celldm(2)=   0.000000  celldm(3)=   0.000000
     celldm(4)=   0.000000  celldm(5)=   0.000000  celldm(6)=   0.000000

     crystal axes: (cart. coord. in units of alat)
               a(1) = (   1.000000   0.000000   0.000000 )  
               a(2) = (   0.500000   0.866025   0.000000 )  
               a(3) = (   0.000000   0.000000  14.013001 )  

     reciprocal axes: (cart. coord. in units 2 pi/alat)
               b(1) = (  1.000000 -0.577350  0.000000 )  
               b(2) = (  0.000000  1.154701  0.000000 )  
               b(3) = (  0.000000  0.000000  0.071362 )  


     PseudoPot. # 1 for Ti read from file:
     ./pseudo/Ti.pbe-spn-rrkjus_psl.1.0.0.UPF
     MD5 check sum: e281089c08e14b8efcf92e44a67ada65
     Pseudo is Ultrasoft + core correction, Zval = 12.0
     Generated using &quot;atomic&quot; code by A. Dal Corso  v.6.2.2
     Using radial grid of 1177 points,  6 beta functions with: 
                l(1) =   0
                l(2) =   0
                l(3) =   1
                l(4) =   1
                l(5) =   2
                l(6) =   2
     Q(r) pseudized with 0 coefficients 


     PseudoPot. # 2 for N  read from file:
     ./pseudo/N.pbe-n-rrkjus_psl.1.0.0.UPF
     MD5 check sum: ada94e3ed05223de5319d0572dc76806
     Pseudo is Ultrasoft + core correction, Zval =  5.0
     Generated using &quot;atomic&quot; code by A. Dal Corso  v.6.3MaX
     Using radial grid of 1085 points,  4 beta functions with: 
                l(1) =   0
                l(2) =   0
                l(3) =   1
                l(4) =   1
     Q(r) pseudized with 0 coefficients 


     atomic species   valence    mass     pseudopotential
        Ti            12.00    47.86700     Ti( 1.00)
        N              5.00    14.00670     N ( 1.00)

     12 Sym. Ops., with inversion, found


                                    s                        frac. trans.

      isym =  1     identity                                     

 cryst.   s( 1) = (     1          0          0      )
                  (     0          1          0      )
                  (     0          0          1      )

 cart.    s( 1) = (  1.0000000  0.0000000  0.0000000 )
                  (  0.0000000  1.0000000  0.0000000 )
                  (  0.0000000  0.0000000  1.0000000 )


      isym =  2     180 deg rotation - cart. axis [1,0,0]        

 cryst.   s( 2) = (     1          0          0      )
                  (     1         -1          0      )
                  (     0          0         -1      )

 cart.    s( 2) = (  1.0000000  0.0000000  0.0000000 )
                  (  0.0000000 -1.0000000  0.0000000 )
                  (  0.0000000  0.0000000 -1.0000000 )


      isym =  3     120 deg rotation - cryst. axis [0,0,1]       

 cryst.   s( 3) = (    -1          1          0      )
                  (    -1          0          0      )
                  (     0          0          1      )

 cart.    s( 3) = ( -0.5000000 -0.8660254  0.0000000 )
                  (  0.8660254 -0.5000000  0.0000000 )
                  (  0.0000000  0.0000000  1.0000000 )


      isym =  4     120 deg rotation - cryst. axis [0,0,-1]      

 cryst.   s( 4) = (     0         -1          0      )
                  (     1         -1          0      )
                  (     0          0          1      )

 cart.    s( 4) = ( -0.5000000  0.8660254  0.0000000 )
                  ( -0.8660254 -0.5000000  0.0000000 )
                  (  0.0000000  0.0000000  1.0000000 )


      isym =  5     180 deg rotation - cryst. axis [0,1,0]       

 cryst.   s( 5) = (     0         -1          0      )
                  (    -1          0          0      )
                  (     0          0         -1      )

 cart.    s( 5) = ( -0.5000000 -0.8660254  0.0000000 )
                  ( -0.8660254  0.5000000  0.0000000 )
                  (  0.0000000  0.0000000 -1.0000000 )


      isym =  6     180 deg rotation - cryst. axis [1,1,0]       

 cryst.   s( 6) = (    -1          1          0      )
                  (     0          1          0      )
                  (     0          0         -1      )

 cart.    s( 6) = ( -0.5000000  0.8660254  0.0000000 )
                  (  0.8660254  0.5000000  0.0000000 )
                  (  0.0000000  0.0000000 -1.0000000 )


      isym =  7     inversion                                    

 cryst.   s( 7) = (    -1          0          0      )
                  (     0         -1          0      )
                  (     0          0         -1      )

 cart.    s( 7) = ( -1.0000000  0.0000000  0.0000000 )
                  (  0.0000000 -1.0000000  0.0000000 )
                  (  0.0000000  0.0000000 -1.0000000 )


      isym =  8     inv. 180 deg rotation - cart. axis [1,0,0]   

 cryst.   s( 8) = (    -1          0          0      )
                  (    -1          1          0      )
                  (     0          0          1      )

 cart.    s( 8) = ( -1.0000000  0.0000000  0.0000000 )
                  (  0.0000000  1.0000000  0.0000000 )
                  (  0.0000000  0.0000000  1.0000000 )


      isym =  9     inv. 120 deg rotation - cryst. axis [0,0,1]  

 cryst.   s( 9) = (     1         -1          0      )
                  (     1          0          0      )
                  (     0          0         -1      )

 cart.    s( 9) = (  0.5000000  0.8660254  0.0000000 )
                  ( -0.8660254  0.5000000  0.0000000 )
                  (  0.0000000  0.0000000 -1.0000000 )


      isym = 10     inv. 120 deg rotation - cryst. axis [0,0,-1] 

 cryst.   s(10) = (     0          1          0      )
                  (    -1          1          0      )
                  (     0          0         -1      )

 cart.    s(10) = (  0.5000000 -0.8660254  0.0000000 )
                  (  0.8660254  0.5000000  0.0000000 )
                  (  0.0000000  0.0000000 -1.0000000 )


      isym = 11     inv. 180 deg rotation - cryst. axis [0,1,0]  

 cryst.   s(11) = (     0          1          0      )
                  (     1          0          0      )
                  (     0          0          1      )

 cart.    s(11) = (  0.5000000  0.8660254  0.0000000 )
                  (  0.8660254 -0.5000000  0.0000000 )
                  (  0.0000000  0.0000000  1.0000000 )


      isym = 12     inv. 180 deg rotation - cryst. axis [1,1,0]  

 cryst.   s(12) = (     1         -1          0      )
                  (     0         -1          0      )
                  (     0          0          1      )

 cart.    s(12) = (  0.5000000 -0.8660254  0.0000000 )
                  ( -0.8660254 -0.5000000  0.0000000 )
                  (  0.0000000  0.0000000  1.0000000 )


   Cartesian axes

     site n.     atom                  positions (alat units)
         1           Ti  tau(   1) = (  -0.0000000  -0.0000000   3.3567082  )
         2           N   tau(   2) = (   0.5000000   0.2886751   3.7233205  )
         3           Ti  tau(   3) = (   1.0000000   0.5773503   4.1370215  )
         4           N   tau(   4) = (  -0.0000000   0.0000000   4.5558206  )
         5           Ti  tau(   5) = (   0.5000000   0.2886751   4.9709625  )
         6           N   tau(   6) = (   1.0000000   0.5773503   5.3716310  )
         7           Ti  tau(   7) = (   0.0000000   0.0000000   5.7817554  )
         8           N   tau(   8) = (   0.5000000   0.2886751   6.1900037  )
         9           Ti  tau(   9) = (   1.0000000   0.5773503   6.5982520  )
        10           N   tau(  10) = (   0.0000000   0.0000000   7.0065003  )
        11           Ti  tau(  11) = (   0.5000000   0.2886751   7.4147486  )
        12           N   tau(  12) = (   1.0000000   0.5773503   7.8229969  )
        13           Ti  tau(  13) = (   0.0000000   0.0000000   8.2312452  )
        14           N   tau(  14) = (   0.5000000   0.2886751   8.6413696  )
        15           Ti  tau(  15) = (   1.0000000   0.5773503   9.0420381  )
        16           N   tau(  16) = (   0.0000000  -0.0000000   9.4571800  )
        17           Ti  tau(  17) = (   0.5000000   0.2886751   9.8759792  )
        18           N   tau(  18) = (   1.0000000   0.5773503  10.2896801  )
        19           Ti  tau(  19) = (   0.0000000   0.0000000  10.6562925  )

   Crystallographic axes

     site n.     atom                  positions (cryst. coord.)
         1           Ti  tau(   1) = (  0.0000000  0.0000000  0.2395424  )
         2           N   tau(   2) = (  0.3333333  0.3333333  0.2657047  )
         3           Ti  tau(   3) = (  0.6666667  0.6666667  0.2952274  )
         4           N   tau(   4) = (  0.0000000  0.0000000  0.3251139  )
         5           Ti  tau(   5) = (  0.3333333  0.3333333  0.3547393  )
         6           N   tau(   6) = (  0.6666667  0.6666667  0.3833320  )
         7           Ti  tau(   7) = (  0.0000000  0.0000000  0.4125994  )
         8           N   tau(   8) = (  0.3333333  0.3333333  0.4417329  )
         9           Ti  tau(   9) = (  0.6666667  0.6666667  0.4708665  )
        10           N   tau(  10) = (  0.0000000  0.0000000  0.5000000  )
        11           Ti  tau(  11) = (  0.3333333  0.3333333  0.5291335  )
        12           N   tau(  12) = (  0.6666667  0.6666667  0.5582671  )
        13           Ti  tau(  13) = (  0.0000000  0.0000000  0.5874006  )
        14           N   tau(  14) = (  0.3333333  0.3333333  0.6166680  )
        15           Ti  tau(  15) = (  0.6666667  0.6666667  0.6452607  )
        16           N   tau(  16) = (  0.0000000  0.0000000  0.6748861  )
        17           Ti  tau(  17) = (  0.3333333  0.3333333  0.7047726  )
        18           N   tau(  18) = (  0.6666667  0.6666667  0.7342953  )
        19           Ti  tau(  19) = (  0.0000000  0.0000000  0.7604576  )

     number of k points=    61  Marzari-Vanderbilt smearing, width (Ry)=  0.0100
                       cart. coord. in units 2pi/alat
        k(    1) = (   0.0000000   0.0000000   0.0000000), wk =   0.0034722
        k(    2) = (   0.0000000   0.0481125   0.0000000), wk =   0.0208333
        k(    3) = (   0.0000000   0.0962250   0.0000000), wk =   0.0208333
        k(    4) = (   0.0000000   0.1443376   0.0000000), wk =   0.0208333
        k(    5) = (   0.0000000   0.1924501   0.0000000), wk =   0.0208333
        k(    6) = (   0.0000000   0.2405626   0.0000000), wk =   0.0208333
        k(    7) = (   0.0000000   0.2886751   0.0000000), wk =   0.0208333
        k(    8) = (   0.0000000   0.3367877   0.0000000), wk =   0.0208333
        k(    9) = (   0.0000000   0.3849002   0.0000000), wk =   0.0208333
        k(   10) = (   0.0000000   0.4330127   0.0000000), wk =   0.0208333
        k(   11) = (   0.0000000   0.4811252   0.0000000), wk =   0.0208333
        k(   12) = (   0.0000000   0.5292377   0.0000000), wk =   0.0208333
        k(   13) = (   0.0000000  -0.5773503   0.0000000), wk =   0.0104167
        k(   14) = (   0.0416667   0.0721688   0.0000000), wk =   0.0208333
        k(   15) = (   0.0416667   0.1202813   0.0000000), wk =   0.0416667
        k(   16) = (   0.0416667   0.1683938   0.0000000), wk =   0.0416667
        k(   17) = (   0.0416667   0.2165064   0.0000000), wk =   0.0416667
        k(   18) = (   0.0416667   0.2646189   0.0000000), wk =   0.0416667
        k(   19) = (   0.0416667   0.3127314   0.0000000), wk =   0.0416667
        k(   20) = (   0.0416667   0.3608439   0.0000000), wk =   0.0416667
        k(   21) = (   0.0416667   0.4089564   0.0000000), wk =   0.0416667
        k(   22) = (   0.0416667   0.4570690   0.0000000), wk =   0.0416667
        k(   23) = (   0.0416667   0.5051815   0.0000000), wk =   0.0416667
        k(   24) = (   0.0416667  -0.6014065   0.0000000), wk =   0.0416667
        k(   25) = (   0.0833333   0.1443376   0.0000000), wk =   0.0208333
        k(   26) = (   0.0833333   0.1924501   0.0000000), wk =   0.0416667
        k(   27) = (   0.0833333   0.2405626   0.0000000), wk =   0.0416667
        k(   28) = (   0.0833333   0.2886751   0.0000000), wk =   0.0416667
        k(   29) = (   0.0833333   0.3367877   0.0000000), wk =   0.0416667
        k(   30) = (   0.0833333   0.3849002   0.0000000), wk =   0.0416667
        k(   31) = (   0.0833333   0.4330127   0.0000000), wk =   0.0416667
        k(   32) = (   0.0833333   0.4811252   0.0000000), wk =   0.0416667
        k(   33) = (   0.0833333  -0.6254628   0.0000000), wk =   0.0416667
        k(   34) = (   0.0833333  -0.5773503   0.0000000), wk =   0.0208333
        k(   35) = (   0.1250000   0.2165064   0.0000000), wk =   0.0208333
        k(   36) = (   0.1250000   0.2646189   0.0000000), wk =   0.0416667
        k(   37) = (   0.1250000   0.3127314   0.0000000), wk =   0.0416667
        k(   38) = (   0.1250000   0.3608439   0.0000000), wk =   0.0416667
        k(   39) = (   0.1250000   0.4089564   0.0000000), wk =   0.0416667
        k(   40) = (   0.1250000   0.4570690   0.0000000), wk =   0.0416667
        k(   41) = (   0.1250000  -0.6495191   0.0000000), wk =   0.0416667
        k(   42) = (   0.1250000  -0.6014065   0.0000000), wk =   0.0416667
        k(   43) = (   0.1666667   0.2886751   0.0000000), wk =   0.0208333
        k(   44) = (   0.1666667   0.3367877   0.0000000), wk =   0.0416667
        k(   45) = (   0.1666667   0.3849002   0.0000000), wk =   0.0416667
        k(   46) = (   0.1666667   0.4330127   0.0000000), wk =   0.0416667
        k(   47) = (   0.1666667  -0.6735753   0.0000000), wk =   0.0416667
        k(   48) = (   0.1666667  -0.6254628   0.0000000), wk =   0.0416667
        k(   49) = (   0.1666667  -0.5773503   0.0000000), wk =   0.0208333
        k(   50) = (   0.2083333   0.3608439   0.0000000), wk =   0.0208333
        k(   51) = (   0.2083333   0.4089564   0.0000000), wk =   0.0416667
        k(   52) = (   0.2083333  -0.6976316   0.0000000), wk =   0.0416667
        k(   53) = (   0.2083333  -0.6495191   0.0000000), wk =   0.0416667
        k(   54) = (   0.2083333  -0.6014065   0.0000000), wk =   0.0416667
        k(   55) = (   0.2500000  -0.7216878   0.0000000), wk =   0.0208333
        k(   56) = (   0.2500000  -0.6735753   0.0000000), wk =   0.0416667
        k(   57) = (   0.2500000  -0.6254628   0.0000000), wk =   0.0416667
        k(   58) = (   0.2500000  -0.5773503   0.0000000), wk =   0.0208333
        k(   59) = (   0.2916667  -0.6495191   0.0000000), wk =   0.0208333
        k(   60) = (   0.2916667  -0.6014065   0.0000000), wk =   0.0416667
        k(   61) = (   0.3333333  -0.5773503   0.0000000), wk =   0.0069444

                       cryst. coord.
        k(    1) = (   0.0000000   0.0000000   0.0000000), wk =   0.0034722
        k(    2) = (   0.0000000   0.0416667   0.0000000), wk =   0.0208333
        k(    3) = (   0.0000000   0.0833333   0.0000000), wk =   0.0208333
        k(    4) = (   0.0000000   0.1250000   0.0000000), wk =   0.0208333
        k(    5) = (   0.0000000   0.1666667   0.0000000), wk =   0.0208333
        k(    6) = (   0.0000000   0.2083333   0.0000000), wk =   0.0208333
        k(    7) = (   0.0000000   0.2500000   0.0000000), wk =   0.0208333
        k(    8) = (   0.0000000   0.2916667   0.0000000), wk =   0.0208333
        k(    9) = (   0.0000000   0.3333333   0.0000000), wk =   0.0208333
        k(   10) = (   0.0000000   0.3750000   0.0000000), wk =   0.0208333
        k(   11) = (   0.0000000   0.4166667   0.0000000), wk =   0.0208333
        k(   12) = (   0.0000000   0.4583333   0.0000000), wk =   0.0208333
        k(   13) = (   0.0000000  -0.5000000   0.0000000), wk =   0.0104167
        k(   14) = (   0.0416667   0.0833333   0.0000000), wk =   0.0208333
        k(   15) = (   0.0416667   0.1250000   0.0000000), wk =   0.0416667
        k(   16) = (   0.0416667   0.1666667   0.0000000), wk =   0.0416667
        k(   17) = (   0.0416667   0.2083333   0.0000000), wk =   0.0416667
        k(   18) = (   0.0416667   0.2500000   0.0000000), wk =   0.0416667
        k(   19) = (   0.0416667   0.2916667   0.0000000), wk =   0.0416667
        k(   20) = (   0.0416667   0.3333333   0.0000000), wk =   0.0416667
        k(   21) = (   0.0416667   0.3750000   0.0000000), wk =   0.0416667
        k(   22) = (   0.0416667   0.4166667   0.0000000), wk =   0.0416667
        k(   23) = (   0.0416667   0.4583333   0.0000000), wk =   0.0416667
        k(   24) = (   0.0416667  -0.5000000   0.0000000), wk =   0.0416667
        k(   25) = (   0.0833333   0.1666667   0.0000000), wk =   0.0208333
        k(   26) = (   0.0833333   0.2083333   0.0000000), wk =   0.0416667
        k(   27) = (   0.0833333   0.2500000   0.0000000), wk =   0.0416667
        k(   28) = (   0.0833333   0.2916667   0.0000000), wk =   0.0416667
        k(   29) = (   0.0833333   0.3333333   0.0000000), wk =   0.0416667
        k(   30) = (   0.0833333   0.3750000   0.0000000), wk =   0.0416667
        k(   31) = (   0.0833333   0.4166667   0.0000000), wk =   0.0416667
        k(   32) = (   0.0833333   0.4583333   0.0000000), wk =   0.0416667
        k(   33) = (   0.0833333  -0.5000000   0.0000000), wk =   0.0416667
        k(   34) = (   0.0833333  -0.4583333   0.0000000), wk =   0.0208333
        k(   35) = (   0.1250000   0.2500000   0.0000000), wk =   0.0208333
        k(   36) = (   0.1250000   0.2916667   0.0000000), wk =   0.0416667
        k(   37) = (   0.1250000   0.3333333   0.0000000), wk =   0.0416667
        k(   38) = (   0.1250000   0.3750000   0.0000000), wk =   0.0416667
        k(   39) = (   0.1250000   0.4166667   0.0000000), wk =   0.0416667
        k(   40) = (   0.1250000   0.4583333   0.0000000), wk =   0.0416667
        k(   41) = (   0.1250000  -0.5000000   0.0000000), wk =   0.0416667
        k(   42) = (   0.1250000  -0.4583333   0.0000000), wk =   0.0416667
        k(   43) = (   0.1666667   0.3333333   0.0000000), wk =   0.0208333
        k(   44) = (   0.1666667   0.3750000   0.0000000), wk =   0.0416667
        k(   45) = (   0.1666667   0.4166667   0.0000000), wk =   0.0416667
        k(   46) = (   0.1666667   0.4583333   0.0000000), wk =   0.0416667
        k(   47) = (   0.1666667  -0.5000000   0.0000000), wk =   0.0416667
        k(   48) = (   0.1666667  -0.4583333   0.0000000), wk =   0.0416667
        k(   49) = (   0.1666667  -0.4166667   0.0000000), wk =   0.0208333
        k(   50) = (   0.2083333   0.4166667   0.0000000), wk =   0.0208333
        k(   51) = (   0.2083333   0.4583333   0.0000000), wk =   0.0416667
        k(   52) = (   0.2083333  -0.5000000   0.0000000), wk =   0.0416667
        k(   53) = (   0.2083333  -0.4583333   0.0000000), wk =   0.0416667
        k(   54) = (   0.2083333  -0.4166667   0.0000000), wk =   0.0416667
        k(   55) = (   0.2500000  -0.5000000   0.0000000), wk =   0.0208333
        k(   56) = (   0.2500000  -0.4583333   0.0000000), wk =   0.0416667
        k(   57) = (   0.2500000  -0.4166667   0.0000000), wk =   0.0416667
        k(   58) = (   0.2500000  -0.3750000   0.0000000), wk =   0.0208333
        k(   59) = (   0.2916667  -0.4166667   0.0000000), wk =   0.0208333
        k(   60) = (   0.2916667  -0.3750000   0.0000000), wk =   0.0416667
        k(   61) = (   0.3333333  -0.3333333   0.0000000), wk =   0.0069444

     Dense  grid:   549067 G-vectors     FFT dimensions: (  45,  45, 625)

     Smooth grid:   138223 G-vectors     FFT dimensions: (  27,  27, 400)

     Dynamical RAM for                 wfc:       1.32 MB

     Dynamical RAM for     wfc (w. buffer):      82.08 MB

     Dynamical RAM for           str. fact:       0.70 MB

     Dynamical RAM for           local pot:       0.00 MB

     Dynamical RAM for          nlocal pot:       2.78 MB

     Dynamical RAM for                qrad:       3.93 MB

     Dynamical RAM for          rho,v,vnew:       2.30 MB

     Dynamical RAM for               rhoin:       0.77 MB

     Dynamical RAM for            rho*nmix:       5.58 MB

     Dynamical RAM for           G-vectors:       1.35 MB

     Dynamical RAM for          h,s,v(r/c):       0.16 MB

     Dynamical RAM for          <psi|beta>:       0.46 MB

     Dynamical RAM for                 psi:       2.65 MB

     Dynamical RAM for                hpsi:       2.65 MB

     Dynamical RAM for                spsi:       2.65 MB

     Dynamical RAM for      wfcinit/wfcrot:       3.43 MB

     Dynamical RAM for           addusdens:      68.37 MB

     Estimated static dynamical RAM per process >     102.62 MB

     Estimated max dynamical RAM per process >     170.99 MB

     Estimated total dynamical RAM >       4.01 GB

     Check: negative core charge=   -0.000003

     Initial potential from superposition of free atoms

     starting charge  164.98515, renormalised to  165.00000

     negative rho (up, down):  2.483E-04 0.000E+00
     Starting wfcs are  136 randomized atomic wfcs

     total cpu time spent up to now is       25.9 secs

     Self-consistent Calculation

     iteration #  1     ecut=    60.00 Ry     beta= 0.20
     Davidson diagonalization with overlap
     ethr =  1.00E-02,  avg # of iterations =  2.1

     negative rho (up, down):  1.251E-04 0.000E+00

     total cpu time spent up to now is      103.2 secs

     total energy              =   -1379.53429352 Ry
     estimated scf accuracy    <      17.20876748 Ry

     iteration #  2     ecut=    60.00 Ry     beta= 0.20
     Davidson diagonalization with overlap
     ethr =  1.00E-02,  avg # of iterations =  7.1

     total cpu time spent up to now is      256.1 secs

     total energy              =   -1332.72233011 Ry
     estimated scf accuracy    <    6475.61270743 Ry

     iteration #  3     ecut=    60.00 Ry     beta= 0.20
     Davidson diagonalization with overlap
     ethr =  1.00E-02,  avg # of iterations =  7.2

     total cpu time spent up to now is      392.3 secs

     total energy              =   -1382.77545732 Ry
     estimated scf accuracy    <       8.54914795 Ry

     iteration #  4     ecut=    60.00 Ry     beta= 0.20
     Davidson diagonalization with overlap
     ethr =  5.18E-03,  avg # of iterations =  2.2

     total cpu time spent up to now is      459.5 secs

     total energy              =   -1382.75125329 Ry
     estimated scf accuracy    <      30.22427124 Ry

     iteration #  5     ecut=    60.00 Ry     beta= 0.20
     Davidson diagonalization with overlap
     ethr =  5.18E-03,  avg # of iterations =  1.4

     total cpu time spent up to now is      519.9 secs

     total energy              =   -1383.64263807 Ry
     estimated scf accuracy    <       8.33239404 Ry

     iteration #  6     ecut=    60.00 Ry     beta= 0.20
     Davidson diagonalization with overlap
     ethr =  5.05E-03,  avg # of iterations =  1.0

     total cpu time spent up to now is      577.9 secs

     total energy              =   -1383.73611017 Ry
     estimated scf accuracy    <       2.04353518 Ry

     iteration #  7     ecut=    60.00 Ry     beta= 0.20
     Davidson diagonalization with overlap
     ethr =  1.24E-03,  avg # of iterations =  3.5

     total cpu time spent up to now is      637.0 secs

     total energy              =   -1383.72535445 Ry
     estimated scf accuracy    <       0.47996601 Ry

     iteration #  8     ecut=    60.00 Ry     beta= 0.20
     Davidson diagonalization with overlap
     ethr =  2.91E-04,  avg # of iterations =  7.5

     total cpu time spent up to now is      722.4 secs

     total energy              =   -1383.73154415 Ry
     estimated scf accuracy    <       0.41168828 Ry

     iteration #  9     ecut=    60.00 Ry     beta= 0.20
     Davidson diagonalization with overlap
     ethr =  2.50E-04,  avg # of iterations =  1.0

     total cpu time spent up to now is      772.1 secs

     total energy              =   -1383.72353799 Ry
     estimated scf accuracy    <       0.22701074 Ry

     iteration # 10     ecut=    60.00 Ry     beta= 0.20
     Davidson diagonalization with overlap
     ethr =  1.38E-04,  avg # of iterations =  1.1

     total cpu time spent up to now is      828.1 secs

     total energy              =   -1383.71987493 Ry
     estimated scf accuracy    <       0.13373805 Ry

     iteration # 11     ecut=    60.00 Ry     beta= 0.20
     Davidson diagonalization with overlap
     ethr =  8.11E-05,  avg # of iterations =  1.0

     total cpu time spent up to now is      878.5 secs

     total energy              =   -1383.70484070 Ry
     estimated scf accuracy    <       0.09187006 Ry

     iteration # 12     ecut=    60.00 Ry     beta= 0.20
     Davidson diagonalization with overlap
     ethr =  5.57E-05,  avg # of iterations =  2.1

     total cpu time spent up to now is      946.1 secs

     total energy              =   -1383.70468191 Ry
     estimated scf accuracy    <       0.00860786 Ry

     iteration # 13     ecut=    60.00 Ry     beta= 0.20
     Davidson diagonalization with overlap
     ethr =  5.22E-06,  avg # of iterations =  7.6

     total cpu time spent up to now is     1022.0 secs

     total energy              =   -1383.70561677 Ry
     estimated scf accuracy    <       0.02147899 Ry

     iteration # 14     ecut=    60.00 Ry     beta= 0.20
     Davidson diagonalization with overlap
     ethr =  5.22E-06,  avg # of iterations =  1.2

     total cpu time spent up to now is     1076.8 secs

     total energy              =   -1383.70526860 Ry
     estimated scf accuracy    <       0.00510781 Ry

     iteration # 15     ecut=    60.00 Ry     beta= 0.20
     Davidson diagonalization with overlap
     ethr =  3.10E-06,  avg # of iterations =  2.4

     negative rho (up, down):  1.054E-07 0.000E+00

     total cpu time spent up to now is     1140.3 secs

     total energy              =   -1383.70554645 Ry
     estimated scf accuracy    <       0.00148639 Ry

     iteration # 16     ecut=    60.00 Ry     beta= 0.20
     Davidson diagonalization with overlap
     ethr =  9.01E-07,  avg # of iterations =  1.4

     negative rho (up, down):  5.915E-06 0.000E+00

     total cpu time spent up to now is     1198.7 secs

     total energy              =   -1383.70556179 Ry
     estimated scf accuracy    <       0.00057176 Ry

     iteration # 17     ecut=    60.00 Ry     beta= 0.20
     Davidson diagonalization with overlap
     ethr =  3.47E-07,  avg # of iterations =  2.1

     negative rho (up, down):  1.866E-05 0.000E+00

     total cpu time spent up to now is     1264.9 secs

     total energy              =   -1383.70558909 Ry
     estimated scf accuracy    <       0.00017520 Ry

     iteration # 18     ecut=    60.00 Ry     beta= 0.20
     Davidson diagonalization with overlap
     ethr =  1.06E-07,  avg # of iterations =  1.1

     negative rho (up, down):  1.154E-04 0.000E+00

     total cpu time spent up to now is     1323.5 secs

     total energy              =   -1383.70558225 Ry
     estimated scf accuracy    <       0.00006623 Ry

     iteration # 19     ecut=    60.00 Ry     beta= 0.20
     Davidson diagonalization with overlap
     ethr =  4.01E-08,  avg # of iterations =  2.0

     negative rho (up, down):  1.225E-04 0.000E+00

     total cpu time spent up to now is     1391.2 secs

     total energy              =   -1383.70558749 Ry
     estimated scf accuracy    <       0.00000588 Ry

     iteration # 20     ecut=    60.00 Ry     beta= 0.20
     Davidson diagonalization with overlap
     ethr =  3.57E-09,  avg # of iterations =  4.2

     negative rho (up, down):  1.453E-04 0.000E+00

     total cpu time spent up to now is     1462.7 secs

     total energy              =   -1383.70558787 Ry
     estimated scf accuracy    <       0.00000139 Ry

     iteration # 21     ecut=    60.00 Ry     beta= 0.20
     Davidson diagonalization with overlap
     ethr =  8.45E-10,  avg # of iterations =  3.4

     negative rho (up, down):  1.733E-04 0.000E+00

     total cpu time spent up to now is     1527.4 secs

     total energy              =   -1383.70558796 Ry
     estimated scf accuracy    <       0.00000142 Ry

     iteration # 22     ecut=    60.00 Ry     beta= 0.20
     Davidson diagonalization with overlap
     ethr =  8.45E-10,  avg # of iterations =  1.3

     negative rho (up, down):  2.157E-04 0.000E+00

     total cpu time spent up to now is     1587.9 secs

     total energy              =   -1383.70558795 Ry
     estimated scf accuracy    <       0.00000037 Ry

     iteration # 23     ecut=    60.00 Ry     beta= 0.20
     Davidson diagonalization with overlap
     ethr =  2.21E-10,  avg # of iterations =  2.0

     negative rho (up, down):  2.287E-04 0.000E+00

     total cpu time spent up to now is     1655.0 secs

     total energy              =   -1383.70558796 Ry
     estimated scf accuracy    <       0.00000007 Ry

     iteration # 24     ecut=    60.00 Ry     beta= 0.20
     Davidson diagonalization with overlap
     c_bands:  1 eigenvalues not converged
     ethr =  4.19E-11,  avg # of iterations =  4.1

     negative rho (up, down):  2.297E-04 0.000E+00

     total cpu time spent up to now is     1724.7 secs

     total energy              =   -1383.70558797 Ry
     estimated scf accuracy    <       0.00000006 Ry

     iteration # 25     ecut=    60.00 Ry     beta= 0.20
     Davidson diagonalization with overlap
     ethr =  3.47E-11,  avg # of iterations =  1.2

     negative rho (up, down):  2.242E-04 0.000E+00

     total cpu time spent up to now is     1784.2 secs

     total energy              =   -1383.70558798 Ry
     estimated scf accuracy    <       0.00000002 Ry

     iteration # 26     ecut=    60.00 Ry     beta= 0.20
     Davidson diagonalization with overlap
     ethr =  1.40E-11,  avg # of iterations =  1.7

     negative rho (up, down):  2.262E-04 0.000E+00

     total cpu time spent up to now is     1845.8 secs

     total energy              =   -1383.70558798 Ry
     estimated scf accuracy    <       0.00000056 Ry

     iteration # 27     ecut=    60.00 Ry     beta= 0.20
     Davidson diagonalization with overlap
     ethr =  1.40E-11,  avg # of iterations =  1.0

     negative rho (up, down):  2.225E-04 0.000E+00

     total cpu time spent up to now is     1903.4 secs

     total energy              =   -1383.70558799 Ry
     estimated scf accuracy    <          1.2E-09 Ry

     iteration # 28     ecut=    60.00 Ry     beta= 0.20
     Davidson diagonalization with overlap
     ethr =  7.43E-13,  avg # of iterations =  4.7

     negative rho (up, down):  2.213E-04 0.000E+00

     total cpu time spent up to now is     1977.0 secs

     total energy              =   -1383.70558799 Ry
     estimated scf accuracy    <          2.4E-10 Ry

     iteration # 29     ecut=    60.00 Ry     beta= 0.20
     Davidson diagonalization with overlap
     ethr =  1.43E-13,  avg # of iterations =  2.7

     negative rho (up, down):  2.212E-04 0.000E+00

     total cpu time spent up to now is     2045.2 secs

     total energy              =   -1383.70558799 Ry
     estimated scf accuracy    <          1.9E-10 Ry

     iteration # 30     ecut=    60.00 Ry     beta= 0.20
     Davidson diagonalization with overlap
     ethr =  1.13E-13,  avg # of iterations =  1.3

     negative rho (up, down):  2.207E-04 0.000E+00

     total cpu time spent up to now is     2105.2 secs

     total energy              =   -1383.70558799 Ry
     estimated scf accuracy    <          2.1E-10 Ry

     iteration # 31     ecut=    60.00 Ry     beta= 0.20
     Davidson diagonalization with overlap
     ethr =  1.13E-13,  avg # of iterations =  1.6

     negative rho (up, down):  2.203E-04 0.000E+00

     total cpu time spent up to now is     2170.8 secs

     End of self-consistent calculation

          k = 0.0000 0.0000 0.0000 ( 17133 PWs)   bands (ev):

   -50.1119 -50.1116 -50.0721 -50.0321 -49.9875 -49.9798 -49.8312 -49.8312
   -49.3861 -49.3861 -26.6998 -26.6431 -26.5507 -26.4092 -26.2932 -26.2320
   -26.1756 -26.1756 -26.1756 -26.1756 -26.1584 -26.1271 -26.1271 -26.1020
   -26.1020 -26.0977 -26.0658 -26.0658 -26.0633 -26.0633 -25.8994 -25.8994
   -25.8994 -25.8994 -25.7350 -25.7349 -25.4140 -25.4140 -25.4140 -25.4140
    -9.2727  -9.0972  -8.8345  -8.5568  -8.2586  -7.8622  -7.4526  -7.1383
    -6.9355  -0.1933   0.1412   0.6296   1.2113   1.9358   2.3504   2.3504
     2.5193   2.5193   2.7663   2.7663   2.8353   3.0116   3.0116   3.3297
     3.3297   3.7715   3.8595   3.8595   4.4912   4.4912   4.6182   5.0538
     5.0538   5.3500   5.5130   5.5130   6.9804   7.0431   7.2338   7.2338
     7.3228   7.4288   7.4288   7.5446   7.6872   7.6872   7.8261   7.9584
     7.9584   8.1255   8.2287   8.2287   8.4634   8.4855   8.4855   8.5850
     8.5850   8.8527   8.8701   8.8701   8.9936   8.9936   9.2665   9.3096
     9.3096   9.4365   9.4365   9.6312   9.6312   9.6386   9.6386   9.6414
     9.9232  10.0795  10.1522  10.1522  10.9090  10.9090  11.6547  11.6547

     occupation numbers 
     1.0000   1.0000   1.0000   1.0000   1.0000   1.0000   1.0000   1.0000
     1.0000   1.0000   1.0000   1.0000   1.0000   1.0000   1.0000   1.0000
     1.0000   1.0000   1.0000   1.0000   1.0000   1.0000   1.0000   1.0000
     1.0000   1.0000   1.0000   1.0000   1.0000   1.0000   1.0000   1.0000
     1.0000   1.0000   1.0000   1.0000   1.0000   1.0000   1.0000   1.0000
     1.0000   1.0000   1.0000   1.0000   1.0000   1.0000   1.0000   1.0000
     1.0000   1.0000   1.0000   1.0000   1.0000   1.0000   1.0000   1.0000
     1.0000   1.0000   1.0000   1.0000   1.0000   1.0000   1.0000   1.0000
     1.0000   1.0000   1.0000   1.0000   1.0000   1.0000   1.0000   1.0000
     1.0000   1.0000   1.0000   1.0000   1.0000   1.0000   1.0000   1.0000
     1.0002   1.0061   1.0061   1.0594   0.9251   0.9251   0.2394   0.0121
     0.0121   0.0000   0.0000   0.0000   0.0000   0.0000   0.0000   0.0000
     0.0000   0.0000   0.0000   0.0000   0.0000   0.0000   0.0000   0.0000
     0.0000   0.0000   0.0000   0.0000   0.0000   0.0000   0.0000   0.0000
     0.0000   0.0000   0.0000   0.0000   0.0000   0.0000   0.0000   0.0000

          k = 0.0000 0.0481 0.0000 ( 17153 PWs)   bands (ev):

   -50.1107 -50.1104 -50.0708 -50.0310 -49.9866 -49.9790 -49.8301 -49.8301
   -49.3851 -49.3851 -26.6958 -26.6399 -26.5486 -26.4087 -26.2942 -26.2332
   -26.1823 -26.1822 -26.1776 -26.1776 -26.1604 -26.1347 -26.1298 -26.1077
   -26.1036 -26.0987 -26.0720 -26.0703 -26.0671 -26.0643 -25.9083 -25.9082
   -25.9012 -25.9012 -25.7336 -25.7335 -25.4216 -25.4216 -25.4157 -25.4157
    -9.2430  -9.0695  -8.8100  -8.5368  -8.2440  -7.8538  -7.4513  -7.1442
    -6.9471  -0.1558   0.1720   0.6490   1.2147   1.9133   2.3495   2.3631
     2.5182   2.5305   2.7218   2.7749   2.7883   3.0045   3.0164   3.3296
     3.3561   3.5761   3.8515   3.9919   4.2902   4.4690   4.6989   4.8890
     5.0083   5.3097   5.3503   5.4314   6.9831   7.0059   7.2064   7.2760
     7.3817   7.3903   7.4722   7.6056   7.6555   7.7315   7.8639   7.9443
     7.9887   8.1153   8.2595   8.2643   8.4178   8.4836   8.5704   8.6248
     8.6872   8.8020   8.8683   8.9060   9.0228   9.0865   9.2062   9.3144
     9.3547   9.4529   9.4607   9.5767   9.6307   9.6550   9.6645   9.7554
     9.9531  10.0847  10.1697  10.1829  10.8798  10.9208  11.6087  11.6610

     occupation numbers 
     1.0000   1.0000   1.0000   1.0000   1.0000   1.0000   1.0000   1.0000
     1.0000   1.0000   1.0000   1.0000   1.0000   1.0000   1.0000   1.0000
     1.0000   1.0000   1.0000   1.0000   1.0000   1.0000   1.0000   1.0000
     1.0000   1.0000   1.0000   1.0000   1.0000   1.0000   1.0000   1.0000
     1.0000   1.0000   1.0000   1.0000   1.0000   1.0000   1.0000   1.0000
     1.0000   1.0000   1.0000   1.0000   1.0000   1.0000   1.0000   1.0000
     1.0000   1.0000   1.0000   1.0000   1.0000   1.0000   1.0000   1.0000
     1.0000   1.0000   1.0000   1.0000   1.0000   1.0000   1.0000   1.0000
     1.0000   1.0000   1.0000   1.0000   1.0000   1.0000   1.0000   1.0000
     1.0000   1.0000   1.0000   1.0000   1.0000   1.0000   1.0000   1.0000
     1.0015   1.0019   1.0175   1.0824   1.0233   0.7170   0.1222   0.0181
     0.0047   0.0000   0.0000   0.0000   0.0000   0.0000   0.0000   0.0000
     0.0000   0.0000   0.0000   0.0000   0.0000   0.0000   0.0000   0.0000
     0.0000   0.0000   0.0000   0.0000   0.0000   0.0000   0.0000   0.0000
     0.0000   0.0000   0.0000   0.0000   0.0000   0.0000   0.0000   0.0000

          k = 0.0000 0.0962 0.0000 ( 17192 PWs)   bands (ev):

   -50.1072 -50.1069 -50.0670 -50.0279 -49.9839 -49.9766 -49.8269 -49.8269
   -49.3822 -49.3822 -26.6841 -26.6304 -26.5427 -26.4080 -26.2991 -26.2405
   -26.2000 -26.1984 -26.1836 -26.1836 -26.1702 -26.1554 -26.1376 -26.1225
   -26.1085 -26.1039 -26.0921 -26.0855 -26.0709 -26.0672 -25.9334 -25.9334
   -25.9064 -25.9064 -25.7301 -25.7301 -25.4436 -25.4436 -25.4205 -25.4205
    -9.1553  -8.9881  -8.7381  -8.4782  -8.2015  -7.8295  -7.4478  -7.1614
    -6.9811  -0.0452   0.2623   0.7057   1.2246   1.8503   2.3484   2.3997
     2.5024   2.5450   2.5623   2.7673   2.7988   2.9435   3.0291   3.2957
     3.3280   3.4175   3.8273   3.9786   4.0517   4.4055   4.5528   4.6468
     4.8857   4.9610   5.1516   5.2317   6.9199   6.9775   7.0874   7.2704
     7.3828   7.4976   7.5651   7.5802   7.7747   7.8396   7.8428   8.0234
     8.0927   8.1357   8.2880   8.3296   8.4578   8.5435   8.6492   8.6646
     8.7745   8.9364   8.9915   9.0298   9.0547   9.0720   9.3077   9.3615
     9.4043   9.4254   9.5015   9.5953   9.6767   9.7018   9.8025   9.8289
    10.0259  10.1253  10.2216  10.3031  10.8233  10.9547  11.4945  11.6784

     occupation numbers 
     1.0000   1.0000   1.0000   1.0000   1.0000   1.0000   1.0000   1.0000
     1.0000   1.0000   1.0000   1.0000   1.0000   1.0000   1.0000   1.0000
     1.0000   1.0000   1.0000   1.0000   1.0000   1.0000   1.0000   1.0000
     1.0000   1.0000   1.0000   1.0000   1.0000   1.0000   1.0000   1.0000
     1.0000   1.0000   1.0000   1.0000   1.0000   1.0000   1.0000   1.0000
     1.0000   1.0000   1.0000   1.0000   1.0000   1.0000   1.0000   1.0000
     1.0000   1.0000   1.0000   1.0000   1.0000   1.0000   1.0000   1.0000
     1.0000   1.0000   1.0000   1.0000   1.0000   1.0000   1.0000   1.0000
     1.0000   1.0000   1.0000   1.0000   1.0000   1.0000   1.0000   1.0000
     1.0000   1.0000   1.0000   1.0000   1.0000   1.0000   1.0000   1.0000
     1.0015   1.0292   1.0726   1.0798   0.4801   0.1913   0.1808   0.0014
     0.0001   0.0000   0.0000   0.0000   0.0000   0.0000   0.0000   0.0000
     0.0000   0.0000   0.0000   0.0000   0.0000   0.0000   0.0000   0.0000
     0.0000   0.0000   0.0000   0.0000   0.0000   0.0000   0.0000   0.0000
     0.0000   0.0000   0.0000   0.0000   0.0000   0.0000   0.0000   0.0000

          k = 0.0000 0.1443 0.0000 ( 17210 PWs)   bands (ev):

   -50.1016 -50.1014 -50.0608 -50.0229 -49.9796 -49.9729 -49.8218 -49.8218
   -49.3775 -49.3775 -26.6651 -26.6154 -26.5340 -26.4094 -26.3148 -26.2651
   -26.2242 -26.2124 -26.1931 -26.1930 -26.1921 -26.1858 -26.1494 -26.1392
   -26.1257 -26.1183 -26.1164 -26.0964 -26.0772 -26.0720 -25.9713 -25.9712
   -25.9147 -25.9147 -25.7259 -25.7259 -25.4784 -25.4784 -25.4281 -25.4281
    -9.0141  -8.8572  -8.6230  -8.3849  -8.1345  -7.7920  -7.4431  -7.1888
    -7.0339   0.1317   0.4057   0.7948   1.2399   1.7609   2.2878   2.3496
     2.4541   2.5160   2.6088   2.6883   2.7774   2.8327   3.0452   3.2075
     3.2377   3.3216   3.7541   3.7864   3.8659   4.2005   4.3095   4.3683
     4.6215   4.7190   4.9053   4.9917   6.7263   6.9000   7.0414   7.1283
     7.3443   7.5387   7.6282   7.7276   7.7590   7.9805   7.9846   8.0423
     8.2347   8.2356   8.3713   8.4666   8.5827   8.5986   8.6512   8.7717
     8.9395   8.9896   9.0179   9.1412   9.1951   9.2967   9.3456   9.4128
     9.5306   9.5491   9.5924   9.7181   9.7611   9.7785   9.8979   9.9249
    10.0249  10.3020  10.3045  10.5186  10.8250  11.0058  11.3688  11.7029

     occupation numbers 
     1.0000   1.0000   1.0000   1.0000   1.0000   1.0000   1.0000   1.0000
     1.0000   1.0000   1.0000   1.0000   1.0000   1.0000   1.0000   1.0000
     1.0000   1.0000   1.0000   1.0000   1.0000   1.0000   1.0000   1.0000
     1.0000   1.0000   1.0000   1.0000   1.0000   1.0000   1.0000   1.0000
     1.0000   1.0000   1.0000   1.0000   1.0000   1.0000   1.0000   1.0000
     1.0000   1.0000   1.0000   1.0000   1.0000   1.0000   1.0000   1.0000
     1.0000   1.0000   1.0000   1.0000   1.0000   1.0000   1.0000   1.0000
     1.0000   1.0000   1.0000   1.0000   1.0000   1.0000   1.0000   1.0000
     1.0000   1.0000   1.0000   1.0000   1.0000   1.0000   1.0000   1.0000
     1.0000   1.0000   1.0000   1.0000   1.0000   1.0000   1.0000   1.0000
     1.0004   1.0553   1.0686   0.7376   0.5663   0.0061   0.0054   0.0007
     0.0000   0.0000   0.0000   0.0000   0.0000   0.0000   0.0000   0.0000
     0.0000   0.0000   0.0000   0.0000   0.0000   0.0000   0.0000   0.0000
     0.0000   0.0000   0.0000   0.0000   0.0000   0.0000   0.0000   0.0000
     0.0000   0.0000   0.0000   0.0000   0.0000   0.0000   0.0000   0.0000

          k = 0.0000 0.1925 0.0000 ( 17226 PWs)   bands (ev):

   -50.0943 -50.0941 -50.0526 -50.0164 -49.9740 -49.9680 -49.8152 -49.8152
   -49.3714 -49.3714 -26.6400 -26.5962 -26.5243 -26.4176 -26.3486 -26.3081
   -26.2600 -26.2290 -26.2218 -26.2086 -26.2055 -26.2053 -26.1670 -26.1641
   -26.1514 -26.1399 -26.1270 -26.1033 -26.0854 -26.0785 -26.0168 -26.0164
   -25.9255 -25.9255 -25.7220 -25.7220 -25.5231 -25.5231 -25.4380 -25.4380
    -8.8270  -8.6845  -8.4721  -8.2638  -8.0488  -7.7451  -7.4384  -7.2237
    -7.0995   0.3622   0.5906   0.9063   1.2572   1.6631   2.0586   2.3400
     2.3670   2.5160   2.5534   2.6342   2.6602   2.8675   2.9860   3.0577
     3.0952   3.3064   3.4314   3.6173   3.7305   3.7888   4.1315   4.1962
     4.3452   4.5452   4.6687   4.7663   6.4502   6.6989   7.0162   7.1017
     7.1634   7.4845   7.7399   7.8497   7.9116   7.9869   8.1534   8.2075
     8.2722   8.3910   8.5294   8.5836   8.6039   8.7060   8.8763   8.8766
     8.9632   9.1130   9.1902   9.2235   9.2967   9.3628   9.4775   9.4925
     9.6793   9.6887   9.7894   9.8440   9.8725   9.9132   9.9734  10.0124
    10.2294  10.4094  10.5170  10.7830  10.9688  11.0655  11.3042  11.7295

     occupation numbers 
     1.0000   1.0000   1.0000   1.0000   1.0000   1.0000   1.0000   1.0000
     1.0000   1.0000   1.0000   1.0000   1.0000   1.0000   1.0000   1.0000
     1.0000   1.0000   1.0000   1.0000   1.0000   1.0000   1.0000   1.0000
     1.0000   1.0000   1.0000   1.0000   1.0000   1.0000   1.0000   1.0000
     1.0000   1.0000   1.0000   1.0000   1.0000   1.0000   1.0000   1.0000
     1.0000   1.0000   1.0000   1.0000   1.0000   1.0000   1.0000   1.0000
     1.0000   1.0000   1.0000   1.0000   1.0000   1.0000   1.0000   1.0000
     1.0000   1.0000   1.0000   1.0000   1.0000   1.0000   1.0000   1.0000
     1.0000   1.0000   1.0000   1.0000   1.0000   1.0000   1.0000   1.0000
     1.0000   1.0000   1.0000   1.0000   1.0000   1.0000   1.0000   1.0000
     1.0000   1.0226   0.6717   0.1599   0.0426   0.0050   0.0000   0.0000
     0.0000   0.0000   0.0000   0.0000   0.0000   0.0000   0.0000   0.0000
     0.0000   0.0000   0.0000   0.0000   0.0000   0.0000   0.0000   0.0000
     0.0000   0.0000   0.0000   0.0000   0.0000   0.0000   0.0000   0.0000
     0.0000   0.0000   0.0000   0.0000   0.0000   0.0000   0.0000   0.0000

          k = 0.0000 0.2406 0.0000 ( 17258 PWs)   bands (ev):

   -50.0858 -50.0857 -50.0429 -50.0088 -49.9675 -49.9624 -49.8074 -49.8074
   -49.3643 -49.3643 -26.6105 -26.5749 -26.5169 -26.4393 -26.3974 -26.3605
   -26.3072 -26.2768 -26.2373 -26.2210 -26.2200 -26.2195 -26.1927 -26.1804
   -26.1779 -26.1537 -26.1393 -26.1132 -26.0953 -26.0864 -26.0624 -26.0607
   -25.9381 -25.9381 -25.7188 -25.7187 -25.5741 -25.5741 -25.4495 -25.4495
    -8.6052  -8.4811  -8.2959  -8.1242  -7.9517  -7.6933  -7.4336  -7.2608
    -7.1687   0.6197   0.7960   1.0252   1.2679   1.5663   1.8641   2.0811
     2.2808   2.3934   2.4734   2.5701   2.7023   2.7304   2.8737   2.8916
     3.0590   3.0592   3.2802   3.3246   3.6258   3.6665   3.8428   4.0863
     4.1295   4.3957   4.4770   4.5871   6.1503   6.4426   6.8502   7.1423
     7.1490   7.3003   7.7745   7.9801   8.1312   8.1484   8.2529   8.3498
     8.4824   8.4939   8.5739   8.7509   8.7565   8.8251   8.9376   8.9696
     9.0831   9.2745   9.2812   9.3669   9.4574   9.5551   9.5616   9.6366
     9.7575   9.8061   9.8317   9.8415   9.9424  10.0092  10.0396  10.3861
    10.5205  10.6273  10.8311  11.0119  11.1240  11.2069  11.3839  11.6933

     occupation numbers 
     1.0000   1.0000   1.0000   1.0000   1.0000   1.0000   1.0000   1.0000
     1.0000   1.0000   1.0000   1.0000   1.0000   1.0000   1.0000   1.0000
     1.0000   1.0000   1.0000   1.0000   1.0000   1.0000   1.0000   1.0000
     1.0000   1.0000   1.0000   1.0000   1.0000   1.0000   1.0000   1.0000
     1.0000   1.0000   1.0000   1.0000   1.0000   1.0000   1.0000   1.0000
     1.0000   1.0000   1.0000   1.0000   1.0000   1.0000   1.0000   1.0000
     1.0000   1.0000   1.0000   1.0000   1.0000   1.0000   1.0000   1.0000
     1.0000   1.0000   1.0000   1.0000   1.0000   1.0000   1.0000   1.0000
     1.0000   1.0000   1.0000   1.0000   1.0000   1.0000   1.0000   1.0000
     1.0000   1.0000   1.0000   1.0000   1.0000   1.0000   1.0000   1.0000
     1.0000   1.0001   0.4814   0.0062   0.0000   0.0000   0.0000   0.0000
     0.0000   0.0000   0.0000   0.0000   0.0000   0.0000   0.0000   0.0000
     0.0000   0.0000   0.0000   0.0000   0.0000   0.0000   0.0000   0.0000
     0.0000   0.0000   0.0000   0.0000   0.0000   0.0000   0.0000   0.0000
     0.0000   0.0000   0.0000   0.0000   0.0000   0.0000   0.0000   0.0000

          k = 0.0000 0.2887 0.0000 ( 17282 PWs)   bands (ev):

   -50.0767 -50.0766 -50.0323 -50.0008 -49.9606 -49.9564 -49.7991 -49.7990
   -49.3566 -49.3566 -26.5800 -26.5554 -26.5188 -26.4756 -26.4505 -26.4165
   -26.3609 -26.3212 -26.2681 -26.2355 -26.2347 -26.2300 -26.2084 -26.2036
   -26.1973 -26.1705 -26.1526 -26.1299 -26.1060 -26.0966 -26.0952 -26.0903
   -25.9515 -25.9515 -25.7165 -25.7165 -25.6275 -25.6275 -25.4618 -25.4618
    -8.3654  -8.2635  -8.1095  -7.9785  -7.8519  -7.6402  -7.4261  -7.2903
    -7.2269   0.8270   0.9765   1.1470   1.2721   1.4554   1.7021   1.8809
     2.0096   2.1512   2.2792   2.4156   2.5976   2.6403   2.7191   2.8942
     2.9237   3.0451   3.1934   3.2466   3.4050   3.5844   3.6075   3.9662
     4.0007   4.2904   4.3393   4.4679   5.8529   6.1865   6.6379   7.1163
     7.2214   7.2253   7.6527   8.2048   8.2492   8.3797   8.4182   8.5346
     8.5705   8.7360   8.7672   8.7906   8.9513   8.9861   9.0485   9.0690
     9.1648   9.3303   9.4013   9.5097   9.6177   9.7109   9.7323   9.7467
     9.7931   9.8755   9.8915   9.9179  10.0007  10.0830  10.1612  10.6189
    10.7325  10.9463  11.1741  11.2203  11.2847  11.4294  11.5601  11.7441

     occupation numbers 
     1.0000   1.0000   1.0000   1.0000   1.0000   1.0000   1.0000   1.0000
     1.0000   1.0000   1.0000   1.0000   1.0000   1.0000   1.0000   1.0000
     1.0000   1.0000   1.0000   1.0000   1.0000   1.0000   1.0000   1.0000
     1.0000   1.0000   1.0000   1.0000   1.0000   1.0000   1.0000   1.0000
     1.0000   1.0000   1.0000   1.0000   1.0000   1.0000   1.0000   1.0000
     1.0000   1.0000   1.0000   1.0000   1.0000   1.0000   1.0000   1.0000
     1.0000   1.0000   1.0000   1.0000   1.0000   1.0000   1.0000   1.0000
     1.0000   1.0000   1.0000   1.0000   1.0000   1.0000   1.0000   1.0000
     1.0000   1.0000   1.0000   1.0000   1.0000   1.0000   1.0000   1.0000
     1.0000   1.0000   1.0000   1.0000   1.0000   1.0000   1.0000   1.0000
     1.0000   1.0000   1.0294   0.0000   0.0000   0.0000   0.0000   0.0000
     0.0000   0.0000   0.0000   0.0000   0.0000   0.0000   0.0000   0.0000
     0.0000   0.0000   0.0000   0.0000   0.0000   0.0000   0.0000   0.0000
     0.0000   0.0000   0.0000   0.0000   0.0000   0.0000   0.0000   0.0000
     0.0000   0.0000   0.0000   0.0000   0.0000   0.0000   0.0000   0.0000

          k = 0.0000 0.3368 0.0000 ( 17350 PWs)   bands (ev):

   -50.0675 -50.0675 -50.0214 -49.9928 -49.9538 -49.9506 -49.7907 -49.7907
   -49.3489 -49.3489 -26.5621 -26.5494 -26.5438 -26.5092 -26.4908 -26.4657
   -26.4173 -26.3572 -26.2963 -26.2510 -26.2499 -26.2479 -26.2355 -26.2264
   -26.2137 -26.1812 -26.1658 -26.1442 -26.1168 -26.1146 -26.1043 -26.1042
   -25.9649 -25.9649 -25.7166 -25.7165 -25.6779 -25.6779 -25.4741 -25.4741
    -8.1345  -8.0572  -7.9349  -7.8427  -7.7580  -7.5858  -7.4068  -7.2953
    -7.2519   0.8267   0.9884   1.2031   1.3734   1.3990   1.5032   1.6599
     1.7845   1.9479   1.9576   2.3448   2.5837   2.5932   2.7009   2.8477
     2.8711   3.0180   3.0364   3.1292   3.2139   3.4179   3.5664   3.8456
     3.9509   4.2347   4.2518   4.4081   5.5754   5.9533   6.4431   6.9529
     7.3264   7.3395   7.5394   8.1463   8.5331   8.6276   8.6441   8.6848
     8.8082   8.8156   8.9638   9.0128   9.0739   9.0904   9.2209   9.2638
     9.3304   9.3816   9.4904   9.6186   9.6589   9.7301   9.8342   9.9150
     9.9228   9.9430   9.9971  10.0082  10.0717  10.1250  10.2898  10.6923
    11.0056  11.2052  11.2113  11.4773  11.5232  11.6854  11.7407  11.7888

     occupation numbers 
     1.0000   1.0000   1.0000   1.0000   1.0000   1.0000   1.0000   1.0000
     1.0000   1.0000   1.0000   1.0000   1.0000   1.0000   1.0000   1.0000
     1.0000   1.0000   1.0000   1.0000   1.0000   1.0000   1.0000   1.0000
     1.0000   1.0000   1.0000   1.0000   1.0000   1.0000   1.0000   1.0000
     1.0000   1.0000   1.0000   1.0000   1.0000   1.0000   1.0000   1.0000
     1.0000   1.0000   1.0000   1.0000   1.0000   1.0000   1.0000   1.0000
     1.0000   1.0000   1.0000   1.0000   1.0000   1.0000   1.0000   1.0000
     1.0000   1.0000   1.0000   1.0000   1.0000   1.0000   1.0000   1.0000
     1.0000   1.0000   1.0000   1.0000   1.0000   1.0000   1.0000   1.0000
     1.0000   1.0000   1.0000   1.0000   1.0000   1.0000   1.0000   1.0000
     1.0002   1.0003   1.0558   0.0000   0.0000   0.0000   0.0000   0.0000
     0.0000   0.0000   0.0000   0.0000   0.0000   0.0000   0.0000   0.0000
     0.0000   0.0000   0.0000   0.0000   0.0000   0.0000   0.0000   0.0000
     0.0000   0.0000   0.0000   0.0000   0.0000   0.0000   0.0000   0.0000
     0.0000   0.0000   0.0000   0.0000   0.0000   0.0000   0.0000   0.0000

          k = 0.0000 0.3849 0.0000 ( 17380 PWs)   bands (ev):

   -50.0590 -50.0590 -50.0108 -49.9856 -49.9475 -49.9452 -49.7829 -49.7829
   -49.3418 -49.3418 -26.6006 -26.5860 -26.5569 -26.5327 -26.5166 -26.4767
   -26.4641 -26.3820 -26.3203 -26.2815 -26.2654 -26.2639 -26.2634 -26.2346
   -26.2286 -26.1860 -26.1781 -26.1506 -26.1270 -26.1228 -26.1130 -26.1123
   -25.9774 -25.9774 -25.7343 -25.7343 -25.7062 -25.7062 -25.4855 -25.4855
    -7.9597  -7.9012  -7.8003  -7.7331  -7.6722  -7.5191  -7.3560  -7.2532
    -7.2189   0.6133   0.7906   1.0328   1.2495   1.4031   1.4182   1.5155
     1.6542   1.9849   2.0280   2.3219   2.5317   2.5522   2.6527   2.7426
     2.8221   2.8287   2.9284   2.9838   3.1875   3.3012   3.5453   3.7615
     3.9340   4.2034   4.2209   4.3966   5.3313   5.7570   6.2793   6.8131
     7.3806   7.4850   7.5208   8.0739   8.6482   8.8144   8.9083   8.9435
     8.9569   9.0463   9.0835   9.1779   9.2076   9.2816   9.4116   9.5005
     9.5183   9.5254   9.5513   9.6800   9.6999   9.8211   9.8833   9.9639
    10.0157  10.0206  10.0801  10.1290  10.1412  10.1574  10.3721  10.7368
    11.2284  11.2299  11.3947  11.5973  11.6584  11.7218  11.7887  11.8320

     occupation numbers 
     1.0000   1.0000   1.0000   1.0000   1.0000   1.0000   1.0000   1.0000
     1.0000   1.0000   1.0000   1.0000   1.0000   1.0000   1.0000   1.0000
     1.0000   1.0000   1.0000   1.0000   1.0000   1.0000   1.0000   1.0000
     1.0000   1.0000   1.0000   1.0000   1.0000   1.0000   1.0000   1.0000
     1.0000   1.0000   1.0000   1.0000   1.0000   1.0000   1.0000   1.0000
     1.0000   1.0000   1.0000   1.0000   1.0000   1.0000   1.0000   1.0000
     1.0000   1.0000   1.0000   1.0000   1.0000   1.0000   1.0000   1.0000
     1.0000   1.0000   1.0000   1.0000   1.0000   1.0000   1.0000   1.0000
     1.0000   1.0000   1.0000   1.0000   1.0000   1.0000   1.0000   1.0000
     1.0000   1.0000   1.0000   1.0000   1.0000   1.0000   1.0000   1.0000
     1.0014   1.0229   1.0431   0.0002   0.0000   0.0000   0.0000   0.0000
     0.0000   0.0000   0.0000   0.0000   0.0000   0.0000   0.0000   0.0000
     0.0000   0.0000   0.0000   0.0000   0.0000   0.0000   0.0000   0.0000
     0.0000   0.0000   0.0000   0.0000   0.0000   0.0000   0.0000   0.0000
     0.0000   0.0000   0.0000   0.0000   0.0000   0.0000   0.0000   0.0000

          k = 0.0000 0.4330 0.0000 ( 17402 PWs)   bands (ev):

   -50.0517 -50.0517 -50.0014 -49.9796 -49.9421 -49.9406 -49.7762 -49.7762
   -49.3356 -49.3356 -26.6467 -26.6312 -26.5902 -26.5590 -26.5350 -26.5164
   -26.4465 -26.3974 -26.3429 -26.3052 -26.2778 -26.2762 -26.2760 -26.2424
   -26.2411 -26.1914 -26.1886 -26.1540 -26.1359 -26.1264 -26.1205 -26.1177
   -25.9880 -25.9880 -25.7700 -25.7700 -25.7088 -25.7088 -25.4953 -25.4953
    -7.8864  -7.8242  -7.7217  -7.6556  -7.5891  -7.4282  -7.2627  -7.1592
    -7.1252   0.3145   0.5071   0.7734   1.0166   1.2251   1.4140   1.6130
     1.8155   2.0150   2.1662   2.3432   2.4627   2.5063   2.5916   2.5990
     2.6380   2.7788   2.8050   2.9483   3.1666   3.2192   3.5375   3.7054
     3.9378   4.1804   4.2335   4.4157   5.1306   5.6059   6.1524   6.7025
     7.3111   7.6467   7.6612   8.0041   8.6196   9.0270   9.0730   9.1507
     9.1890   9.1979   9.2676   9.3191   9.4085   9.5036   9.5397   9.6120
     9.6534   9.6821   9.7458   9.7913   9.8008   9.8752   9.9625  10.0014
    10.0813  10.0885  10.1419  10.1693  10.1808  10.2181  10.4157  10.7482
    11.2229  11.3841  11.4861  11.5859  11.6794  11.7711  11.8716  12.1138

     occupation numbers 
     1.0000   1.0000   1.0000   1.0000   1.0000   1.0000   1.0000   1.0000
     1.0000   1.0000   1.0000   1.0000   1.0000   1.0000   1.0000   1.0000
     1.0000   1.0000   1.0000   1.0000   1.0000   1.0000   1.0000   1.0000
     1.0000   1.0000   1.0000   1.0000   1.0000   1.0000   1.0000   1.0000
     1.0000   1.0000   1.0000   1.0000   1.0000   1.0000   1.0000   1.0000
     1.0000   1.0000   1.0000   1.0000   1.0000   1.0000   1.0000   1.0000
     1.0000   1.0000   1.0000   1.0000   1.0000   1.0000   1.0000   1.0000
     1.0000   1.0000   1.0000   1.0000   1.0000   1.0000   1.0000   1.0000
     1.0000   1.0000   1.0000   1.0000   1.0000   1.0000   1.0000   1.0000
     1.0000   1.0000   1.0000   1.0000   1.0000   1.0000   1.0000   1.0000
     1.0001   1.0416   1.0093   0.0028   0.0000   0.0000   0.0000   0.0000
     0.0000   0.0000   0.0000   0.0000   0.0000   0.0000   0.0000   0.0000
     0.0000   0.0000   0.0000   0.0000   0.0000   0.0000   0.0000   0.0000
     0.0000   0.0000   0.0000   0.0000   0.0000   0.0000   0.0000   0.0000
     0.0000   0.0000   0.0000   0.0000   0.0000   0.0000   0.0000   0.0000

          k = 0.0000 0.4811 0.0000 ( 17374 PWs)   bands (ev):

   -50.0460 -50.0460 -49.9938 -49.9752 -49.9380 -49.9371 -49.7710 -49.7710
   -49.3309 -49.3309 -26.6835 -26.6673 -26.6247 -26.5775 -26.5604 -26.5460
   -26.4328 -26.4130 -26.3500 -26.3092 -26.2873 -26.2851 -26.2790 -26.2551
   -26.2506 -26.1974 -26.1967 -26.1570 -26.1427 -26.1280 -26.1264 -26.1209
   -25.9962 -25.9962 -25.7981 -25.7981 -25.7090 -25.7090 -25.5027 -25.5027
    -7.8793  -7.8041  -7.6883  -7.6083  -7.5208  -7.3373  -7.1562  -7.0452
    -7.0048   0.0350   0.2466   0.5478   0.8499   1.1474   1.4516   1.7081
     1.8994   1.9977   2.2762   2.3700   2.3991   2.4327   2.4925   2.5356
     2.5519   2.7337   2.7417   2.9173   3.1502   3.1678   3.5354   3.6697
     3.9494   4.1707   4.2560   4.4464   4.9815   5.5026   6.0640   6.6238
     7.2470   7.7972   7.8096   7.9480   8.5843   9.0552   9.2860   9.3218
     9.3472   9.3769   9.4177   9.4596   9.5940   9.6095   9.6702   9.6738
     9.7541   9.8185   9.8789   9.9287   9.9323   9.9565  10.0405  10.0609
    10.1386  10.1423  10.1703  10.2133  10.2157  10.2803  10.4397  10.7226
    11.1898  11.4400  11.4946  11.5985  11.7391  11.8075  12.0883  12.2795

     occupation numbers 
     1.0000   1.0000   1.0000   1.0000   1.0000   1.0000   1.0000   1.0000
     1.0000   1.0000   1.0000   1.0000   1.0000   1.0000   1.0000   1.0000
     1.0000   1.0000   1.0000   1.0000   1.0000   1.0000   1.0000   1.0000
     1.0000   1.0000   1.0000   1.0000   1.0000   1.0000   1.0000   1.0000
     1.0000   1.0000   1.0000   1.0000   1.0000   1.0000   1.0000   1.0000
     1.0000   1.0000   1.0000   1.0000   1.0000   1.0000   1.0000   1.0000
     1.0000   1.0000   1.0000   1.0000   1.0000   1.0000   1.0000   1.0000
     1.0000   1.0000   1.0000   1.0000   1.0000   1.0000   1.0000   1.0000
     1.0000   1.0000   1.0000   1.0000   1.0000   1.0000   1.0000   1.0000
     1.0000   1.0000   1.0000   1.0000   1.0000   1.0000   1.0000   1.0000
     1.0000   0.3653   0.3074   0.0163   0.0000   0.0000   0.0000   0.0000
     0.0000   0.0000   0.0000   0.0000   0.0000   0.0000   0.0000   0.0000
     0.0000   0.0000   0.0000   0.0000   0.0000   0.0000   0.0000   0.0000
     0.0000   0.0000   0.0000   0.0000   0.0000   0.0000   0.0000   0.0000
     0.0000   0.0000   0.0000   0.0000   0.0000   0.0000   0.0000   0.0000

          k = 0.0000 0.5292 0.0000 ( 17380 PWs)   bands (ev):

   -50.0425 -50.0425 -49.9888 -49.9727 -49.9355 -49.9349 -49.7677 -49.7677
   -49.3279 -49.3279 -26.7070 -26.6903 -26.6471 -26.5905 -26.5804 -26.5627
   -26.4347 -26.4265 -26.3343 -26.3019 -26.2933 -26.2909 -26.2816 -26.2721
   -26.2565 -26.2023 -26.2017 -26.1593 -26.1470 -26.1301 -26.1288 -26.1226
   -26.0013 -26.0013 -25.8152 -25.8152 -25.7091 -25.7091 -25.5075 -25.5074
    -7.8886  -7.8040  -7.6771  -7.5840  -7.4790  -7.2755  -7.0774  -6.9563
    -6.9075  -0.1577   0.0709   0.4029   0.7538   1.1148   1.4925   1.7736
     1.9244   1.9749   2.3056   2.3277   2.3559   2.3759   2.4703   2.4974
     2.5449   2.7029   2.7329   2.8961   3.1393   3.1451   3.5349   3.6501
     3.9595   4.1667   4.2749   4.4722   4.8896   5.4444   6.0128   6.5773
     7.2062   7.8792   7.9181   7.9378   8.5603   9.0722   9.4122   9.4288
     9.4634   9.4844   9.5003   9.5848   9.6799   9.6883   9.6891   9.7318
     9.8191   9.9111   9.9892  10.0096  10.0384  10.0423  10.0906  10.1038
    10.1585  10.1725  10.1780  10.2633  10.2664  10.3905  10.4693  10.6659
    11.1465  11.4251  11.5063  11.6609  11.7063  11.9239  12.2502  12.2561

     occupation numbers 
     1.0000   1.0000   1.0000   1.0000   1.0000   1.0000   1.0000   1.0000
     1.0000   1.0000   1.0000   1.0000   1.0000   1.0000   1.0000   1.0000
     1.0000   1.0000   1.0000   1.0000   1.0000   1.0000   1.0000   1.0000
     1.0000   1.0000   1.0000   1.0000   1.0000   1.0000   1.0000   1.0000
     1.0000   1.0000   1.0000   1.0000   1.0000   1.0000   1.0000   1.0000
     1.0000   1.0000   1.0000   1.0000   1.0000   1.0000   1.0000   1.0000
     1.0000   1.0000   1.0000   1.0000   1.0000   1.0000   1.0000   1.0000
     1.0000   1.0000   1.0000   1.0000   1.0000   1.0000   1.0000   1.0000
     1.0000   1.0000   1.0000   1.0000   1.0000   1.0000   1.0000   1.0000
     1.0000   1.0000   1.0000   1.0000   1.0000   1.0000   1.0000   1.0000
     1.0000   0.0893   0.0362   0.0216   0.0000   0.0000   0.0000   0.0000
     0.0000   0.0000   0.0000   0.0000   0.0000   0.0000   0.0000   0.0000
     0.0000   0.0000   0.0000   0.0000   0.0000   0.0000   0.0000   0.0000
     0.0000   0.0000   0.0000   0.0000   0.0000   0.0000   0.0000   0.0000
     0.0000   0.0000   0.0000   0.0000   0.0000   0.0000   0.0000   0.0000

          k = 0.0000-0.5774 0.0000 ( 17314 PWs)   bands (ev):

   -50.0413 -50.0413 -49.9869 -49.9719 -49.9347 -49.9342 -49.7666 -49.7666
   -49.3269 -49.3269 -26.7150 -26.6981 -26.6548 -26.5951 -26.5875 -26.5684
   -26.4376 -26.4318 -26.3185 -26.3001 -26.2953 -26.2929 -26.2850 -26.2815
   -26.2585 -26.2042 -26.2035 -26.1603 -26.1484 -26.1314 -26.1290 -26.1231
   -26.0030 -26.0030 -25.8209 -25.8209 -25.7092 -25.7092 -25.5091 -25.5091
    -7.8935  -7.8056  -7.6746  -7.5766  -7.4651  -7.2541  -7.0490  -6.9231
    -6.8707  -0.2260   0.0094   0.3532   0.7224   1.1060   1.5105   1.7960
     1.9265   1.9672   2.2942   2.3053   2.3407   2.3654   2.4670   2.4839
     2.5502   2.6921   2.7378   2.8887   3.1354   3.1404   3.5349   3.6441
     3.9633   4.1656   4.2822   4.4821   4.8586   5.4258   5.9963   6.5620
     7.1923   7.8777   7.9578   7.9663   8.5525   9.0783   9.4468   9.4795
     9.4925   9.5237   9.5410   9.6284   9.6849   9.6852   9.7142   9.7677
     9.8704   9.8984  10.0413  10.0461  10.0704  10.0916  10.1069  10.1097
    10.1644  10.1696  10.1852  10.2882  10.2911  10.4651  10.4905  10.6185
    11.1251  11.4163  11.5141  11.6882  11.6922  11.9686  12.2466  12.3094

     occupation numbers 
     1.0000   1.0000   1.0000   1.0000   1.0000   1.0000   1.0000   1.0000
     1.0000   1.0000   1.0000   1.0000   1.0000   1.0000   1.0000   1.0000
     1.0000   1.0000   1.0000   1.0000   1.0000   1.0000   1.0000   1.0000
     1.0000   1.0000   1.0000   1.0000   1.0000   1.0000   1.0000   1.0000
     1.0000   1.0000   1.0000   1.0000   1.0000   1.0000   1.0000   1.0000
     1.0000   1.0000   1.0000   1.0000   1.0000   1.0000   1.0000   1.0000
     1.0000   1.0000   1.0000   1.0000   1.0000   1.0000   1.0000   1.0000
     1.0000   1.0000   1.0000   1.0000   1.0000   1.0000   1.0000   1.0000
     1.0000   1.0000   1.0000   1.0000   1.0000   1.0000   1.0000   1.0000
     1.0000   1.0000   1.0000   1.0000   1.0000   1.0000   1.0000   1.0000
     1.0000   0.0921   0.0123   0.0095   0.0000   0.0000   0.0000   0.0000
     0.0000   0.0000   0.0000   0.0000   0.0000   0.0000   0.0000   0.0000
     0.0000   0.0000   0.0000   0.0000   0.0000   0.0000   0.0000   0.0000
     0.0000   0.0000   0.0000   0.0000   0.0000   0.0000   0.0000   0.0000
     0.0000   0.0000   0.0000   0.0000   0.0000   0.0000   0.0000   0.0000

          k = 0.0417 0.0722 0.0000 ( 17167 PWs)   bands (ev):

   -50.1084 -50.1081 -50.0682 -50.0289 -49.9848 -49.9774 -49.8280 -49.8280
   -49.3832 -49.3832 -26.6879 -26.6335 -26.5446 -26.4081 -26.2970 -26.2374
   -26.1941 -26.1937 -26.1820 -26.1818 -26.1662 -26.1486 -26.1359 -26.1155
   -26.1106 -26.1000 -26.0856 -26.0804 -26.0690 -26.0675 -25.9251 -25.9251
   -25.9048 -25.9048 -25.7311 -25.7311 -25.4363 -25.4363 -25.4190 -25.4190
    -9.1843  -9.0150  -8.7618  -8.4975  -8.2154  -7.8374  -7.4489  -7.1557
    -6.9700  -0.0817   0.2325   0.6871   1.2214   1.8705   2.3493   2.3863
     2.5218   2.5403   2.5984   2.7762   2.7817   2.9806   3.0352   3.2452
     3.3942   3.4681   3.7879   4.0525   4.1117   4.3837   4.6845   4.6857
     4.8933   5.1060   5.1814   5.2882   6.9649   6.9841   7.1695   7.2526
     7.3886   7.4197   7.5256   7.6525   7.7193   7.7337   7.9406   7.9721
     8.0117   8.1912   8.2061   8.3336   8.4556   8.5744   8.5776   8.7146
     8.7329   8.8163   8.9568   8.9800   9.0555   9.1618   9.1866   9.3634
     9.3812   9.4458   9.4894   9.5757   9.6557   9.6793   9.7798   9.8122
    10.0367  10.0649  10.1863  10.2864  10.8598  10.9160  11.5763  11.6221

     occupation numbers 
     1.0000   1.0000   1.0000   1.0000   1.0000   1.0000   1.0000   1.0000
     1.0000   1.0000   1.0000   1.0000   1.0000   1.0000   1.0000   1.0000
     1.0000   1.0000   1.0000   1.0000   1.0000   1.0000   1.0000   1.0000
     1.0000   1.0000   1.0000   1.0000   1.0000   1.0000   1.0000   1.0000
     1.0000   1.0000   1.0000   1.0000   1.0000   1.0000   1.0000   1.0000
     1.0000   1.0000   1.0000   1.0000   1.0000   1.0000   1.0000   1.0000
     1.0000   1.0000   1.0000   1.0000   1.0000   1.0000   1.0000   1.0000
     1.0000   1.0000   1.0000   1.0000   1.0000   1.0000   1.0000   1.0000
     1.0000   1.0000   1.0000   1.0000   1.0000   1.0000   1.0000   1.0000
     1.0000   1.0000   1.0000   1.0000   1.0000   1.0000   1.0000   1.0000
     1.0018   1.0047   1.0463   1.0300   0.7806   0.7054   0.0200   0.0080
     0.0022   0.0000   0.0000   0.0000   0.0000   0.0000   0.0000   0.0000
     0.0000   0.0000   0.0000   0.0000   0.0000   0.0000   0.0000   0.0000
     0.0000   0.0000   0.0000   0.0000   0.0000   0.0000   0.0000   0.0000
     0.0000   0.0000   0.0000   0.0000   0.0000   0.0000   0.0000   0.0000

          k = 0.0417 0.1203 0.0000 ( 17218 PWs)   bands (ev):

   -50.1038 -50.1036 -50.0632 -50.0249 -49.9813 -49.9744 -49.8238 -49.8238
   -49.3794 -49.3794 -26.6726 -26.6213 -26.5373 -26.4084 -26.3072 -26.2535
   -26.2139 -26.2084 -26.1913 -26.1902 -26.1822 -26.1732 -26.1469 -26.1301
   -26.1222 -26.1115 -26.1045 -26.0931 -26.0748 -26.0721 -25.9562 -25.9561
   -25.9120 -25.9120 -25.7274 -25.7274 -25.4644 -25.4644 -25.4255 -25.4255
    -9.0698  -8.9087  -8.6683  -8.4215  -8.1607  -7.8065  -7.4448  -7.1782
    -7.0134   0.0623   0.3496   0.7601   1.2340   1.7944   2.3495   2.3716
     2.4260   2.5348   2.5878   2.7334   2.7886   2.8907   3.0376   3.1510
     3.3454   3.3969   3.6833   3.9190   3.9803   4.2569   4.3930   4.4970
     4.7425   4.7739   4.9336   5.0697   6.8929   6.9548   7.0742   7.2128
     7.3499   7.4695   7.5278   7.6767   7.7858   7.8976   7.9127   8.0710
     8.1579   8.2051   8.3366   8.3958   8.5359   8.6077   8.7011   8.7487
     8.8821   8.9167   9.0435   9.1130   9.1371   9.2077   9.2861   9.4314
     9.4460   9.4821   9.5629   9.6688   9.7065   9.7462   9.8786   9.8955
    10.0306  10.1921  10.2895  10.4511  10.8459  10.9379  11.4721  11.6217

     occupation numbers 
     1.0000   1.0000   1.0000   1.0000   1.0000   1.0000   1.0000   1.0000
     1.0000   1.0000   1.0000   1.0000   1.0000   1.0000   1.0000   1.0000
     1.0000   1.0000   1.0000   1.0000   1.0000   1.0000   1.0000   1.0000
     1.0000   1.0000   1.0000   1.0000   1.0000   1.0000   1.0000   1.0000
     1.0000   1.0000   1.0000   1.0000   1.0000   1.0000   1.0000   1.0000
     1.0000   1.0000   1.0000   1.0000   1.0000   1.0000   1.0000   1.0000
     1.0000   1.0000   1.0000   1.0000   1.0000   1.0000   1.0000   1.0000
     1.0000   1.0000   1.0000   1.0000   1.0000   1.0000   1.0000   1.0000
     1.0000   1.0000   1.0000   1.0000   1.0000   1.0000   1.0000   1.0000
     1.0000   1.0000   1.0000   1.0000   1.0000   1.0000   1.0000   1.0000
     1.0005   1.0165   1.0478   0.9633   0.4218   0.0593   0.0414   0.0002
     0.0000   0.0000   0.0000   0.0000   0.0000   0.0000   0.0000   0.0000
     0.0000   0.0000   0.0000   0.0000   0.0000   0.0000   0.0000   0.0000
     0.0000   0.0000   0.0000   0.0000   0.0000   0.0000   0.0000   0.0000
     0.0000   0.0000   0.0000   0.0000   0.0000   0.0000   0.0000   0.0000

          k = 0.0417 0.1684 0.0000 ( 17240 PWs)   bands (ev):

   -50.0974 -50.0972 -50.0560 -50.0191 -49.9763 -49.9700 -49.8180 -49.8180
   -49.3740 -49.3740 -26.6506 -26.6041 -26.5280 -26.4129 -26.3323 -26.2887
   -26.2424 -26.2201 -26.2116 -26.2079 -26.1989 -26.1967 -26.1638 -26.1503
   -26.1403 -26.1338 -26.1183 -26.1018 -26.0823 -26.0781 -25.9974 -25.9972
   -25.9221 -25.9221 -25.7234 -25.7234 -25.5037 -25.5036 -25.4347 -25.4347
    -8.9055  -8.7568  -8.5351  -8.3142  -8.0843  -7.7644  -7.4403  -7.2096
    -7.0730   0.2673   0.5145   0.8607   1.2507   1.7016   2.1446   2.3528
     2.4469   2.5023   2.5759   2.6321   2.7362   2.8583   3.0280   3.1008
     3.1327   3.3505   3.5961   3.6317   3.8302   3.9553   4.1824   4.2707
     4.4445   4.5798   4.6958   4.8155   6.6764   6.8598   7.0388   7.1181
     7.2819   7.4898   7.5950   7.6825   7.8622   7.9737   8.1060   8.1400
     8.2212   8.3437   8.4712   8.4994   8.6102   8.7206   8.7672   8.9231
     8.9830   9.0267   9.0730   9.2090   9.3117   9.3605   9.4223   9.4561
     9.5961   9.6241   9.7134   9.7540   9.7747   9.8565   9.9348   9.9941
    10.1283  10.2985  10.5012  10.6832  10.8932  11.0329  11.3579  11.6587

     occupation numbers 
     1.0000   1.0000   1.0000   1.0000   1.0000   1.0000   1.0000   1.0000
     1.0000   1.0000   1.0000   1.0000   1.0000   1.0000   1.0000   1.0000
     1.0000   1.0000   1.0000   1.0000   1.0000   1.0000   1.0000   1.0000
     1.0000   1.0000   1.0000   1.0000   1.0000   1.0000   1.0000   1.0000
     1.0000   1.0000   1.0000   1.0000   1.0000   1.0000   1.0000   1.0000
     1.0000   1.0000   1.0000   1.0000   1.0000   1.0000   1.0000   1.0000
     1.0000   1.0000   1.0000   1.0000   1.0000   1.0000   1.0000   1.0000
     1.0000   1.0000   1.0000   1.0000   1.0000   1.0000   1.0000   1.0000
     1.0000   1.0000   1.0000   1.0000   1.0000   1.0000   1.0000   1.0000
     1.0000   1.0000   1.0000   1.0000   1.0000   1.0000   1.0000   1.0000
     1.0000   1.0251   1.0832   0.9430   0.1261   0.0076   0.0001   0.0000
     0.0000   0.0000   0.0000   0.0000   0.0000   0.0000   0.0000   0.0000
     0.0000   0.0000   0.0000   0.0000   0.0000   0.0000   0.0000   0.0000
     0.0000   0.0000   0.0000   0.0000   0.0000   0.0000   0.0000   0.0000
     0.0000   0.0000   0.0000   0.0000   0.0000   0.0000   0.0000   0.0000

          k = 0.0417 0.2165 0.0000 ( 17247 PWs)   bands (ev):

   -50.0895 -50.0893 -50.0471 -50.0121 -49.9703 -49.9648 -49.8107 -49.8107
   -49.3673 -49.3673 -26.6231 -26.5838 -26.5192 -26.4273 -26.3744 -26.3367
   -26.2857 -26.2558 -26.2322 -26.2225 -26.2123 -26.2085 -26.1877 -26.1725
   -26.1636 -26.1468 -26.1331 -26.1103 -26.0912 -26.0857 -26.0427 -26.0418
   -25.9344 -25.9344 -25.7199 -25.7199 -25.5510 -25.5510 -25.4459 -25.4459
    -8.7005  -8.5682  -8.3711  -8.1834  -7.9927  -7.7151  -7.4359  -7.2463
    -7.1413   0.5158   0.7116   0.9760   1.2652   1.6072   1.9394   2.1923
     2.3422   2.4758   2.5096   2.5825   2.6950   2.8674   2.8934   2.9451
     3.0723   3.2375   3.3016   3.4162   3.6580   3.7314   3.9888   4.0722
     4.2078   4.3986   4.4952   4.5837   6.3991   6.6427   6.9889   7.1193
     7.1502   7.4305   7.6806   7.8408   7.8837   8.1107   8.1898   8.3312
     8.3901   8.4371   8.5705   8.6554   8.6852   8.8325   8.8872   8.9644
     9.0996   9.2092   9.2729   9.3216   9.3785   9.5061   9.5322   9.5711
     9.7233   9.7438   9.7970   9.8588   9.9039   9.9448  10.0244  10.1602
    10.3039  10.5403  10.7304  10.9384  11.0377  11.1767  11.3634  11.6799

     occupation numbers 
     1.0000   1.0000   1.0000   1.0000   1.0000   1.0000   1.0000   1.0000
     1.0000   1.0000   1.0000   1.0000   1.0000   1.0000   1.0000   1.0000
     1.0000   1.0000   1.0000   1.0000   1.0000   1.0000   1.0000   1.0000
     1.0000   1.0000   1.0000   1.0000   1.0000   1.0000   1.0000   1.0000
     1.0000   1.0000   1.0000   1.0000   1.0000   1.0000   1.0000   1.0000
     1.0000   1.0000   1.0000   1.0000   1.0000   1.0000   1.0000   1.0000
     1.0000   1.0000   1.0000   1.0000   1.0000   1.0000   1.0000   1.0000
     1.0000   1.0000   1.0000   1.0000   1.0000   1.0000   1.0000   1.0000
     1.0000   1.0000   1.0000   1.0000   1.0000   1.0000   1.0000   1.0000
     1.0000   1.0000   1.0000   1.0000   1.0000   1.0000   1.0000   1.0000
     1.0000   1.0063   0.9498   0.1875   0.0811   0.0000   0.0000   0.0000
     0.0000   0.0000   0.0000   0.0000   0.0000   0.0000   0.0000   0.0000
     0.0000   0.0000   0.0000   0.0000   0.0000   0.0000   0.0000   0.0000
     0.0000   0.0000   0.0000   0.0000   0.0000   0.0000   0.0000   0.0000
     0.0000   0.0000   0.0000   0.0000   0.0000   0.0000   0.0000   0.0000

          k = 0.0417 0.2646 0.0000 ( 17297 PWs)   bands (ev):

   -50.0806 -50.0805 -50.0369 -50.0043 -49.9636 -49.9590 -49.8027 -49.8027
   -49.3599 -49.3599 -26.5927 -26.5631 -26.5154 -26.4567 -26.4260 -26.3907
   -26.3370 -26.3015 -26.2573 -26.2328 -26.2278 -26.2247 -26.2022 -26.1913
   -26.1866 -26.1624 -26.1474 -26.1230 -26.1027 -26.0954 -26.0823 -26.0780
   -25.9481 -25.9481 -25.7171 -25.7171 -25.6027 -25.6027 -25.4583 -25.4583
    -8.4684  -8.3565  -8.1886  -8.0400  -7.8939  -7.6629  -7.4308  -7.2812
    -7.2071   0.7652   0.9134   1.0923   1.2679   1.5075   1.7740   1.9576
     2.1263   2.3147   2.3622   2.5711   2.6130   2.6948   2.7314   2.9062
     2.9704   3.0544   3.2412   3.2737   3.5442   3.5605   3.7232   3.9511
     4.0363   4.2518   4.3416   4.4074   6.1128   6.3944   6.8015   7.1788
     7.1822   7.2534   7.7452   7.9135   8.1042   8.2002   8.3817   8.4297
     8.5791   8.6069   8.6891   8.8182   8.8771   8.9147   8.9677   9.0724
     9.1953   9.3051   9.3893   9.4974   9.5587   9.5832   9.6933   9.7425
     9.7692   9.8336   9.8650   9.8756   9.9845  10.0614  10.0748  10.4977
    10.5623  10.7681  10.9730  11.1851  11.1925  11.3831  11.5237  11.6904

     occupation numbers 
     1.0000   1.0000   1.0000   1.0000   1.0000   1.0000   1.0000   1.0000
     1.0000   1.0000   1.0000   1.0000   1.0000   1.0000   1.0000   1.0000
     1.0000   1.0000   1.0000   1.0000   1.0000   1.0000   1.0000   1.0000
     1.0000   1.0000   1.0000   1.0000   1.0000   1.0000   1.0000   1.0000
     1.0000   1.0000   1.0000   1.0000   1.0000   1.0000   1.0000   1.0000
     1.0000   1.0000   1.0000   1.0000   1.0000   1.0000   1.0000   1.0000
     1.0000   1.0000   1.0000   1.0000   1.0000   1.0000   1.0000   1.0000
     1.0000   1.0000   1.0000   1.0000   1.0000   1.0000   1.0000   1.0000
     1.0000   1.0000   1.0000   1.0000   1.0000   1.0000   1.0000   1.0000
     1.0000   1.0000   1.0000   1.0000   1.0000   1.0000   1.0000   1.0000
     1.0000   1.0000   0.6423   0.0406   0.0001   0.0000   0.0000   0.0000
     0.0000   0.0000   0.0000   0.0000   0.0000   0.0000   0.0000   0.0000
     0.0000   0.0000   0.0000   0.0000   0.0000   0.0000   0.0000   0.0000
     0.0000   0.0000   0.0000   0.0000   0.0000   0.0000   0.0000   0.0000
     0.0000   0.0000   0.0000   0.0000   0.0000   0.0000   0.0000   0.0000

          k = 0.0417 0.3127 0.0000 ( 17322 PWs)   bands (ev):

   -50.0715 -50.0714 -50.0261 -49.9963 -49.9567 -49.9531 -49.7943 -49.7943
   -49.3523 -49.3523 -26.5653 -26.5482 -26.5278 -26.4942 -26.4737 -26.4450
   -26.3920 -26.3416 -26.2854 -26.2473 -26.2466 -26.2377 -26.2189 -26.2155
   -26.2059 -26.1774 -26.1622 -26.1384 -26.1172 -26.1074 -26.1049 -26.0952
   -25.9622 -25.9622 -25.7157 -25.7157 -25.6545 -25.6545 -25.4712 -25.4712
    -8.2296  -8.1415  -8.0057  -7.8979  -7.7967  -7.6102  -7.4197  -7.3016
    -7.2524   0.8839   1.0323   1.2139   1.3075   1.3947   1.5949   1.7864
     1.9218   1.9971   2.0545   2.3727   2.6116   2.6219   2.7249   2.8851
     2.8982   3.0165   3.1330   3.1813   3.3043   3.4452   3.5755   3.8552
     3.9150   4.1551   4.2386   4.2955   5.8419   6.1576   6.6032   7.0846
     7.2727   7.2760   7.6299   8.1724   8.2024   8.3518   8.5113   8.6809
     8.6852   8.8096   8.9161   8.9388   9.0017   9.0951   9.1551   9.2238
     9.2759   9.3225   9.5098   9.5933   9.6163   9.7418   9.8142   9.8509
     9.8743   9.9219   9.9250  10.0075  10.0405  10.1043  10.2287  10.6154
    10.8687  11.0728  11.0993  11.3398  11.4819  11.5410  11.6729  11.8415

     occupation numbers 
     1.0000   1.0000   1.0000   1.0000   1.0000   1.0000   1.0000   1.0000
     1.0000   1.0000   1.0000   1.0000   1.0000   1.0000   1.0000   1.0000
     1.0000   1.0000   1.0000   1.0000   1.0000   1.0000   1.0000   1.0000
     1.0000   1.0000   1.0000   1.0000   1.0000   1.0000   1.0000   1.0000
     1.0000   1.0000   1.0000   1.0000   1.0000   1.0000   1.0000   1.0000
     1.0000   1.0000   1.0000   1.0000   1.0000   1.0000   1.0000   1.0000
     1.0000   1.0000   1.0000   1.0000   1.0000   1.0000   1.0000   1.0000
     1.0000   1.0000   1.0000   1.0000   1.0000   1.0000   1.0000   1.0000
     1.0000   1.0000   1.0000   1.0000   1.0000   1.0000   1.0000   1.0000
     1.0000   1.0000   1.0000   1.0000   1.0000   1.0000   1.0000   1.0000
     1.0000   1.0000   1.0667   0.0000   0.0000   0.0000   0.0000   0.0000
     0.0000   0.0000   0.0000   0.0000   0.0000   0.0000   0.0000   0.0000
     0.0000   0.0000   0.0000   0.0000   0.0000   0.0000   0.0000   0.0000
     0.0000   0.0000   0.0000   0.0000   0.0000   0.0000   0.0000   0.0000
     0.0000   0.0000   0.0000   0.0000   0.0000   0.0000   0.0000   0.0000

          k = 0.0417 0.3608 0.0000 ( 17379 PWs)   bands (ev):

   -50.0627 -50.0626 -50.0154 -49.9887 -49.9502 -49.9475 -49.7862 -49.7862
   -49.3449 -49.3449 -26.5761 -26.5627 -26.5490 -26.5153 -26.5078 -26.4756
   -26.4456 -26.3717 -26.3089 -26.2696 -26.2662 -26.2555 -26.2462 -26.2310
   -26.2234 -26.1858 -26.1739 -26.1479 -26.1288 -26.1175 -26.1158 -26.1047
   -25.9757 -25.9757 -25.7201 -25.7201 -25.6978 -25.6978 -25.4836 -25.4835
    -8.0197  -7.9554  -7.8483  -7.7742  -7.7082  -7.5529  -7.3888  -7.2863
    -7.2517   0.7601   0.9262   1.1522   1.3579   1.4175   1.5015   1.5444
     1.5949   1.9635   1.9826   2.3386   2.5516   2.5989   2.6800   2.8133
     2.8403   2.9467   2.9748   3.0330   3.1835   3.3347   3.5118   3.7712
     3.8601   4.0991   4.1860   4.2380   5.6032   5.9511   6.4289   6.9360
     7.3866   7.4063   7.5326   8.1375   8.4622   8.6062   8.6495   8.7862
     8.9283   9.0041   9.0549   9.1442   9.1932   9.2039   9.3353   9.3946
     9.4121   9.4797   9.5917   9.6170   9.7140   9.8001   9.8688   9.9609
     9.9834   9.9987  10.0570  10.0777  10.1324  10.1416  10.3398  10.6916
    11.1138  11.1560  11.3003  11.5306  11.6527  11.7029  11.7779  11.8080

     occupation numbers 
     1.0000   1.0000   1.0000   1.0000   1.0000   1.0000   1.0000   1.0000
     1.0000   1.0000   1.0000   1.0000   1.0000   1.0000   1.0000   1.0000
     1.0000   1.0000   1.0000   1.0000   1.0000   1.0000   1.0000   1.0000
     1.0000   1.0000   1.0000   1.0000   1.0000   1.0000   1.0000   1.0000
     1.0000   1.0000   1.0000   1.0000   1.0000   1.0000   1.0000   1.0000
     1.0000   1.0000   1.0000   1.0000   1.0000   1.0000   1.0000   1.0000
     1.0000   1.0000   1.0000   1.0000   1.0000   1.0000   1.0000   1.0000
     1.0000   1.0000   1.0000   1.0000   1.0000   1.0000   1.0000   1.0000
     1.0000   1.0000   1.0000   1.0000   1.0000   1.0000   1.0000   1.0000
     1.0000   1.0000   1.0000   1.0000   1.0000   1.0000   1.0000   1.0000
     1.0017   1.0032   1.0511   0.0000   0.0000   0.0000   0.0000   0.0000
     0.0000   0.0000   0.0000   0.0000   0.0000   0.0000   0.0000   0.0000
     0.0000   0.0000   0.0000   0.0000   0.0000   0.0000   0.0000   0.0000
     0.0000   0.0000   0.0000   0.0000   0.0000   0.0000   0.0000   0.0000
     0.0000   0.0000   0.0000   0.0000   0.0000   0.0000   0.0000   0.0000

          k = 0.0417 0.4090 0.0000 ( 17407 PWs)   bands (ev):

   -50.0547 -50.0547 -50.0054 -49.9821 -49.9443 -49.9425 -49.7790 -49.7790
   -49.3382 -49.3382 -26.6226 -26.6078 -26.5698 -26.5466 -26.5232 -26.4967
   -26.4570 -26.3898 -26.3320 -26.2972 -26.2807 -26.2719 -26.2662 -26.2393
   -26.2368 -26.1959 -26.1801 -26.1538 -26.1363 -26.1249 -26.1224 -26.1122
   -25.9878 -25.9878 -25.7515 -25.7515 -25.7081 -25.7081 -25.4946 -25.4946
    -7.8946  -7.8388  -7.7422  -7.6815  -7.6246  -7.4745  -7.3166  -7.2171
    -7.1867   0.4894   0.6709   0.9191   1.1360   1.2952   1.4040   1.5621
     1.7481   2.0126   2.1028   2.3348   2.4762   2.5517   2.6168   2.7008
     2.7223   2.8172   2.8481   2.9571   3.1450   3.2462   3.4861   3.7053
     3.8479   4.0680   4.1741   4.2172   5.4093   5.7856   6.2881   6.8139
     7.3939   7.5612   7.5819   8.0693   8.6434   8.7579   8.8702   8.9581
     9.1307   9.1598   9.2434   9.2667   9.3220   9.3997   9.4702   9.5734
     9.6159   9.6446   9.6966   9.7196   9.8023   9.8673   9.9310  10.0104
    10.0466  10.0750  10.1253  10.1584  10.1653  10.2039  10.4062  10.7337
    11.1709  11.3065  11.4585  11.6206  11.6832  11.7261  11.7937  11.9975

     occupation numbers 
     1.0000   1.0000   1.0000   1.0000   1.0000   1.0000   1.0000   1.0000
     1.0000   1.0000   1.0000   1.0000   1.0000   1.0000   1.0000   1.0000
     1.0000   1.0000   1.0000   1.0000   1.0000   1.0000   1.0000   1.0000
     1.0000   1.0000   1.0000   1.0000   1.0000   1.0000   1.0000   1.0000
     1.0000   1.0000   1.0000   1.0000   1.0000   1.0000   1.0000   1.0000
     1.0000   1.0000   1.0000   1.0000   1.0000   1.0000   1.0000   1.0000
     1.0000   1.0000   1.0000   1.0000   1.0000   1.0000   1.0000   1.0000
     1.0000   1.0000   1.0000   1.0000   1.0000   1.0000   1.0000   1.0000
     1.0000   1.0000   1.0000   1.0000   1.0000   1.0000   1.0000   1.0000
     1.0000   1.0000   1.0000   1.0000   1.0000   1.0000   1.0000   1.0000
     1.0022   1.0702   1.0804   0.0002   0.0000   0.0000   0.0000   0.0000
     0.0000   0.0000   0.0000   0.0000   0.0000   0.0000   0.0000   0.0000
     0.0000   0.0000   0.0000   0.0000   0.0000   0.0000   0.0000   0.0000
     0.0000   0.0000   0.0000   0.0000   0.0000   0.0000   0.0000   0.0000
     0.0000   0.0000   0.0000   0.0000   0.0000   0.0000   0.0000   0.0000

          k = 0.0417 0.4571 0.0000 ( 17399 PWs)   bands (ev):

   -50.0482 -50.0482 -49.9969 -49.9769 -49.9396 -49.9385 -49.7730 -49.7730
   -49.3327 -49.3327 -26.6642 -26.6485 -26.6066 -26.5669 -26.5456 -26.5325
   -26.4365 -26.4040 -26.3489 -26.3102 -26.2889 -26.2841 -26.2758 -26.2534
   -26.2443 -26.2057 -26.1855 -26.1589 -26.1411 -26.1320 -26.1248 -26.1178
   -25.9976 -25.9976 -25.7839 -25.7839 -25.7087 -25.7087 -25.5036 -25.5036
    -7.8635  -7.7965  -7.6900  -7.6207  -7.5472  -7.3794  -7.2113  -7.1077
    -7.0738   0.1920   0.3906   0.6690   0.9349   1.1832   1.4318   1.6647
     1.8696   2.0143   2.2375   2.3629   2.4116   2.5103   2.5184   2.5806
     2.5971   2.7507   2.7659   2.9151   3.1228   3.1828   3.4768   3.6607
     3.8533   4.0511   4.1827   4.2154   5.2677   5.6657   6.1844   6.7217
     7.3260   7.7209   7.7313   8.0064   8.6170   8.9896   9.0615   9.1588
     9.2784   9.3324   9.3520   9.4189   9.4688   9.5202   9.6177   9.7062
     9.7333   9.7771   9.8544   9.8783   9.9109   9.9192  10.0162  10.0574
    10.1146  10.1318  10.1670  10.1907  10.1939  10.2566  10.4407  10.7381
    11.1626  11.4344  11.5005  11.5868  11.7160  11.7538  12.0052  12.2114

     occupation numbers 
     1.0000   1.0000   1.0000   1.0000   1.0000   1.0000   1.0000   1.0000
     1.0000   1.0000   1.0000   1.0000   1.0000   1.0000   1.0000   1.0000
     1.0000   1.0000   1.0000   1.0000   1.0000   1.0000   1.0000   1.0000
     1.0000   1.0000   1.0000   1.0000   1.0000   1.0000   1.0000   1.0000
     1.0000   1.0000   1.0000   1.0000   1.0000   1.0000   1.0000   1.0000
     1.0000   1.0000   1.0000   1.0000   1.0000   1.0000   1.0000   1.0000
     1.0000   1.0000   1.0000   1.0000   1.0000   1.0000   1.0000   1.0000
     1.0000   1.0000   1.0000   1.0000   1.0000   1.0000   1.0000   1.0000
     1.0000   1.0000   1.0000   1.0000   1.0000   1.0000   1.0000   1.0000
     1.0000   1.0000   1.0000   1.0000   1.0000   1.0000   1.0000   1.0000
     1.0002   0.7725   0.7179   0.0026   0.0000   0.0000   0.0000   0.0000
     0.0000   0.0000   0.0000   0.0000   0.0000   0.0000   0.0000   0.0000
     0.0000   0.0000   0.0000   0.0000   0.0000   0.0000   0.0000   0.0000
     0.0000   0.0000   0.0000   0.0000   0.0000   0.0000   0.0000   0.0000
     0.0000   0.0000   0.0000   0.0000   0.0000   0.0000   0.0000   0.0000

          k = 0.0417 0.5052 0.0000 ( 17409 PWs)   bands (ev):

   -50.0437 -50.0437 -49.9905 -49.9735 -49.9364 -49.9357 -49.7688 -49.7688
   -49.3289 -49.3289 -26.6943 -26.6779 -26.6351 -26.5826 -26.5696 -26.5541
   -26.4312 -26.4188 -26.3438 -26.3069 -26.2959 -26.2923 -26.2787 -26.2679
   -26.2532 -26.2128 -26.1907 -26.1628 -26.1448 -26.1365 -26.1258 -26.1215
   -26.0045 -26.0045 -25.8063 -25.8063 -25.7088 -25.7088 -25.5100 -25.5100
    -7.8695  -7.7905  -7.6708  -7.5865  -7.4923  -7.3013  -7.1149  -7.0015
    -6.9593  -0.0482   0.1695   0.4831   0.8071   1.1350   1.4765   1.7474
     1.9194   1.9880   2.3063   2.3391   2.3952   2.4073   2.4844   2.5151
     2.5520   2.7079   2.7348   2.8857   3.1086   3.1475   3.4743   3.6336
     3.8634   4.0419   4.1938   4.2212   5.1791   5.5903   6.1174   6.6608
     7.2744   7.8542   7.8629   7.9596   8.5892   9.0559   9.2691   9.3482
     9.3982   9.4352   9.4830   9.5190   9.5534   9.6449   9.6762   9.7764
     9.8395   9.9083   9.9299   9.9811   9.9925  10.0181  10.0758  10.1094
    10.1566  10.1627  10.1890  10.2330  10.2374  10.3431  10.4656  10.7050
    11.1331  11.4462  11.5138  11.6071  11.7034  11.8958  12.1557  12.2490

     occupation numbers 
     1.0000   1.0000   1.0000   1.0000   1.0000   1.0000   1.0000   1.0000
     1.0000   1.0000   1.0000   1.0000   1.0000   1.0000   1.0000   1.0000
     1.0000   1.0000   1.0000   1.0000   1.0000   1.0000   1.0000   1.0000
     1.0000   1.0000   1.0000   1.0000   1.0000   1.0000   1.0000   1.0000
     1.0000   1.0000   1.0000   1.0000   1.0000   1.0000   1.0000   1.0000
     1.0000   1.0000   1.0000   1.0000   1.0000   1.0000   1.0000   1.0000
     1.0000   1.0000   1.0000   1.0000   1.0000   1.0000   1.0000   1.0000
     1.0000   1.0000   1.0000   1.0000   1.0000   1.0000   1.0000   1.0000
     1.0000   1.0000   1.0000   1.0000   1.0000   1.0000   1.0000   1.0000
     1.0000   1.0000   1.0000   1.0000   1.0000   1.0000   1.0000   1.0000
     1.0000   0.1471   0.1245   0.0116   0.0000   0.0000   0.0000   0.0000
     0.0000   0.0000   0.0000   0.0000   0.0000   0.0000   0.0000   0.0000
     0.0000   0.0000   0.0000   0.0000   0.0000   0.0000   0.0000   0.0000
     0.0000   0.0000   0.0000   0.0000   0.0000   0.0000   0.0000   0.0000
     0.0000   0.0000   0.0000   0.0000   0.0000   0.0000   0.0000   0.0000

          k = 0.0417-0.6014 0.0000 ( 17385 PWs)   bands (ev):

   -50.0413 -50.0413 -49.9870 -49.9719 -49.9347 -49.9342 -49.7666 -49.7666
   -49.3269 -49.3269 -26.7099 -26.6932 -26.6501 -26.5914 -26.5834 -26.5649
   -26.4349 -26.4284 -26.3240 -26.3012 -26.3001 -26.2969 -26.2826 -26.2816
   -26.2585 -26.2166 -26.1939 -26.1649 -26.1472 -26.1387 -26.1261 -26.1232
   -26.0081 -26.0081 -25.8176 -25.8176 -25.7089 -25.7089 -25.5133 -25.5133
    -7.8782  -7.7928  -7.6652  -7.5714  -7.4648  -7.2592  -7.0598  -6.9382
    -6.8893  -0.1804   0.0499   0.3860   0.7450   1.1171   1.5098   1.7924
     1.9282   1.9712   2.3059   2.3197   2.3481   2.3764   2.4729   2.4875
     2.5541   2.6851   2.7380   2.8701   3.1009   3.1361   3.4742   3.6208
     3.8708   4.0375   4.1983   4.2277   5.1378   5.5547   6.0850   6.6308
     7.2475   7.9140   7.9390   7.9515   8.5744   9.0762   9.3914   9.4468
     9.4825   9.4887   9.5542   9.5660   9.6118   9.6605   9.7500   9.8247
     9.8698   9.9196  10.0198  10.0325  10.0611  10.0656  10.1058  10.1212
    10.1613  10.1642  10.2160  10.2675  10.2717  10.4473  10.4969  10.6522
    11.1023  11.4269  11.5273  11.6255  11.7136  11.9850  12.1677  12.3359

     occupation numbers 
     1.0000   1.0000   1.0000   1.0000   1.0000   1.0000   1.0000   1.0000
     1.0000   1.0000   1.0000   1.0000   1.0000   1.0000   1.0000   1.0000
     1.0000   1.0000   1.0000   1.0000   1.0000   1.0000   1.0000   1.0000
     1.0000   1.0000   1.0000   1.0000   1.0000   1.0000   1.0000   1.0000
     1.0000   1.0000   1.0000   1.0000   1.0000   1.0000   1.0000   1.0000
     1.0000   1.0000   1.0000   1.0000   1.0000   1.0000   1.0000   1.0000
     1.0000   1.0000   1.0000   1.0000   1.0000   1.0000   1.0000   1.0000
     1.0000   1.0000   1.0000   1.0000   1.0000   1.0000   1.0000   1.0000
     1.0000   1.0000   1.0000   1.0000   1.0000   1.0000   1.0000   1.0000
     1.0000   1.0000   1.0000   1.0000   1.0000   1.0000   1.0000   1.0000
     1.0000   0.0401   0.0209   0.0147   0.0000   0.0000   0.0000   0.0000
     0.0000   0.0000   0.0000   0.0000   0.0000   0.0000   0.0000   0.0000
     0.0000   0.0000   0.0000   0.0000   0.0000   0.0000   0.0000   0.0000
     0.0000   0.0000   0.0000   0.0000   0.0000   0.0000   0.0000   0.0000
     0.0000   0.0000   0.0000   0.0000   0.0000   0.0000   0.0000   0.0000

          k = 0.0833 0.1443 0.0000 ( 17259 PWs)   bands (ev):

   -50.0984 -50.0982 -50.0572 -50.0200 -49.9771 -49.9707 -49.8189 -49.8189
   -49.3748 -49.3748 -26.6541 -26.6069 -26.5294 -26.4115 -26.3267 -26.2816
   -26.2351 -26.2197 -26.2098 -26.2069 -26.1962 -26.1921 -26.1636 -26.1476
   -26.1348 -26.1314 -26.1115 -26.1020 -26.0824 -26.0794 -25.9900 -25.9898
   -25.9216 -25.9216 -25.7239 -25.7239 -25.4965 -25.4965 -25.4341 -25.4341
    -8.9321  -8.7813  -8.5565  -8.3313  -8.0964  -7.7710  -7.4410  -7.2048
    -7.0639   0.2352   0.4885   0.8449   1.2482   1.7154   2.1747   2.3574
     2.4431   2.5380   2.5822   2.6058   2.7905   2.8958   2.9411   3.1088
     3.2443   3.3247   3.5969   3.7265   3.8128   4.0846   4.1689   4.3054
     4.5427   4.5628   4.6041   4.8325   6.9011   6.9444   7.0470   7.1676
     7.2328   7.4839   7.5012   7.6279   7.7712   8.0139   8.0158   8.1140
     8.2902   8.2978   8.3676   8.5475   8.6394   8.6409   8.8399   8.9292
     8.9297   9.0581   9.1143   9.2203   9.2232   9.3130   9.4209   9.5267
     9.5641   9.5827   9.6082   9.6765   9.7324   9.8506   9.9273  10.0054
    10.1381  10.2156  10.5419  10.6276  10.8828  11.0041  11.4517  11.5539

     occupation numbers 
     1.0000   1.0000   1.0000   1.0000   1.0000   1.0000   1.0000   1.0000
     1.0000   1.0000   1.0000   1.0000   1.0000   1.0000   1.0000   1.0000
     1.0000   1.0000   1.0000   1.0000   1.0000   1.0000   1.0000   1.0000
     1.0000   1.0000   1.0000   1.0000   1.0000   1.0000   1.0000   1.0000
     1.0000   1.0000   1.0000   1.0000   1.0000   1.0000   1.0000   1.0000
     1.0000   1.0000   1.0000   1.0000   1.0000   1.0000   1.0000   1.0000
     1.0000   1.0000   1.0000   1.0000   1.0000   1.0000   1.0000   1.0000
     1.0000   1.0000   1.0000   1.0000   1.0000   1.0000   1.0000   1.0000
     1.0000   1.0000   1.0000   1.0000   1.0000   1.0000   1.0000   1.0000
     1.0000   1.0000   1.0000   1.0000   1.0000   1.0000   1.0000   1.0000
     1.0000   1.0223   1.0312   1.0688   0.4992   0.0020   0.0019   0.0000
     0.0000   0.0000   0.0000   0.0000   0.0000   0.0000   0.0000   0.0000
     0.0000   0.0000   0.0000   0.0000   0.0000   0.0000   0.0000   0.0000
     0.0000   0.0000   0.0000   0.0000   0.0000   0.0000   0.0000   0.0000
     0.0000   0.0000   0.0000   0.0000   0.0000   0.0000   0.0000   0.0000

          k = 0.0833 0.1925 0.0000 ( 17279 PWs)   bands (ev):

   -50.0914 -50.0912 -50.0492 -50.0138 -49.9717 -49.9661 -49.8125 -49.8125
   -49.3689 -49.3689 -26.6297 -26.5885 -26.5208 -26.4215 -26.3612 -26.3229
   -26.2725 -26.2450 -26.2325 -26.2257 -26.2067 -26.2037 -26.1866 -26.1685
   -26.1531 -26.1417 -26.1255 -26.1123 -26.0923 -26.0867 -26.0301 -26.0295
   -25.9344 -25.9344 -25.7205 -25.7205 -25.5376 -25.5376 -25.4454 -25.4454
    -8.7494  -8.6130  -8.4098  -8.2140  -8.0139  -7.7265  -7.4372  -7.2388
    -7.1271   0.4622   0.6677   0.9499   1.2630   1.6290   1.9819   2.2545
     2.3595   2.4920   2.5222   2.6329   2.7237   2.8698   2.8869   3.0306
     3.1137   3.2306   3.4090   3.5145   3.6433   3.8295   4.0572   4.1078
     4.1722   4.3339   4.4166   4.5605   6.7500   6.8806   7.0422   7.0971
     7.2507   7.3542   7.6151   7.6387   7.7810   7.9620   8.2058   8.2555
     8.3326   8.4633   8.5404   8.6083   8.6965   8.7978   8.9140   8.9812
     9.1260   9.1876   9.2759   9.3489   9.4169   9.4459   9.4990   9.6143
     9.6832   9.7191   9.7491   9.7985   9.8669   9.8915   9.9745  10.0058
    10.1354  10.5026  10.7316  10.8787  11.0062  11.1822  11.4196  11.5732

     occupation numbers 
     1.0000   1.0000   1.0000   1.0000   1.0000   1.0000   1.0000   1.0000
     1.0000   1.0000   1.0000   1.0000   1.0000   1.0000   1.0000   1.0000
     1.0000   1.0000   1.0000   1.0000   1.0000   1.0000   1.0000   1.0000
     1.0000   1.0000   1.0000   1.0000   1.0000   1.0000   1.0000   1.0000
     1.0000   1.0000   1.0000   1.0000   1.0000   1.0000   1.0000   1.0000
     1.0000   1.0000   1.0000   1.0000   1.0000   1.0000   1.0000   1.0000
     1.0000   1.0000   1.0000   1.0000   1.0000   1.0000   1.0000   1.0000
     1.0000   1.0000   1.0000   1.0000   1.0000   1.0000   1.0000   1.0000
     1.0000   1.0000   1.0000   1.0000   1.0000   1.0000   1.0000   1.0000
     1.0000   1.0000   1.0000   1.0000   1.0000   1.0000   1.0000   1.0000
     1.0000   1.0006   1.0788   1.0551   0.4470   0.0109   0.0000   0.0000
     0.0000   0.0000   0.0000   0.0000   0.0000   0.0000   0.0000   0.0000
     0.0000   0.0000   0.0000   0.0000   0.0000   0.0000   0.0000   0.0000
     0.0000   0.0000   0.0000   0.0000   0.0000   0.0000   0.0000   0.0000
     0.0000   0.0000   0.0000   0.0000   0.0000   0.0000   0.0000   0.0000

          k = 0.0833 0.2406 0.0000 ( 17323 PWs)   bands (ev):

   -50.0831 -50.0830 -50.0398 -50.0065 -49.9655 -49.9607 -49.8050 -49.8050
   -49.3620 -49.3620 -26.6009 -26.5685 -26.5146 -26.4431 -26.4070 -26.3722
   -26.3219 -26.2856 -26.2569 -26.2360 -26.2220 -26.2191 -26.2009 -26.1845
   -26.1743 -26.1547 -26.1426 -26.1241 -26.1027 -26.0974 -26.0693 -26.0667
   -25.9493 -25.9493 -25.7175 -25.7175 -25.5845 -25.5845 -25.4587 -25.4587
    -8.5326  -8.4145  -8.2381  -8.0784  -7.9201  -7.6770  -7.4336  -7.2754
    -7.1947   0.7205   0.8677   1.0596   1.2685   1.5391   1.8188   2.0198
     2.2188   2.3826   2.4150   2.6184   2.7111   2.7426   2.7822   2.9165
     3.0392   3.0864   3.2371   3.3566   3.5555   3.6471   3.7590   3.9341
     3.9794   4.1519   4.2068   4.3237   6.5005   6.6970   7.0073   7.1347
     7.1670   7.4355   7.5319   7.8046   7.8739   8.0083   8.2191   8.4295
     8.5230   8.6002   8.6677   8.7634   8.8455   8.8797   9.0200   9.0956
     9.2577   9.3617   9.3861   9.4638   9.5038   9.5783   9.6677   9.7433
     9.7578   9.7684   9.8608   9.9052   9.9914  10.0026  10.0446  10.2501
    10.3452  10.5693  10.8602  11.1606  11.2260  11.3904  11.5279  11.6578

     occupation numbers 
     1.0000   1.0000   1.0000   1.0000   1.0000   1.0000   1.0000   1.0000
     1.0000   1.0000   1.0000   1.0000   1.0000   1.0000   1.0000   1.0000
     1.0000   1.0000   1.0000   1.0000   1.0000   1.0000   1.0000   1.0000
     1.0000   1.0000   1.0000   1.0000   1.0000   1.0000   1.0000   1.0000
     1.0000   1.0000   1.0000   1.0000   1.0000   1.0000   1.0000   1.0000
     1.0000   1.0000   1.0000   1.0000   1.0000   1.0000   1.0000   1.0000
     1.0000   1.0000   1.0000   1.0000   1.0000   1.0000   1.0000   1.0000
     1.0000   1.0000   1.0000   1.0000   1.0000   1.0000   1.0000   1.0000
     1.0000   1.0000   1.0000   1.0000   1.0000   1.0000   1.0000   1.0000
     1.0000   1.0000   1.0000   1.0000   1.0000   1.0000   1.0000   1.0000
     1.0000   1.0072   1.0506   0.3304   0.0998   0.0024   0.0000   0.0000
     0.0000   0.0000   0.0000   0.0000   0.0000   0.0000   0.0000   0.0000
     0.0000   0.0000   0.0000   0.0000   0.0000   0.0000   0.0000   0.0000
     0.0000   0.0000   0.0000   0.0000   0.0000   0.0000   0.0000   0.0000
     0.0000   0.0000   0.0000   0.0000   0.0000   0.0000   0.0000   0.0000

          k = 0.0833 0.2887 0.0000 ( 17357 PWs)   bands (ev):

   -50.0743 -50.0742 -50.0295 -49.9987 -49.9589 -49.9549 -49.7969 -49.7969
   -49.3546 -49.3546 -26.5714 -26.5510 -26.5173 -26.4762 -26.4557 -26.4244
   -26.3747 -26.3267 -26.2815 -26.2473 -26.2437 -26.2373 -26.2075 -26.2029
   -26.1965 -26.1721 -26.1595 -26.1369 -26.1164 -26.1142 -26.0968 -26.0878
   -25.9651 -25.9651 -25.7153 -25.7153 -25.6336 -25.6336 -25.4729 -25.4729
    -8.2974  -8.2014  -8.0558  -7.9364  -7.8232  -7.6261  -7.4279  -7.3056
    -7.2532   0.9294   1.0495   1.1774   1.2667   1.4287   1.6669   1.8550
     1.9817   2.1003   2.2247   2.4160   2.6408   2.6794   2.7714   2.9134
     2.9487   3.0202   3.1567   3.2392   3.3578   3.4833   3.5790   3.7806
     3.8288   3.9989   4.0406   4.1648   6.2499   6.4796   6.8525   7.2018
     7.2208   7.3073   7.7355   7.7977   8.0121   8.2163   8.2695   8.5214
     8.6287   8.8087   8.8744   8.9137   9.0168   9.0831   9.1602   9.2404
     9.2961   9.3555   9.5259   9.5661   9.6389   9.7015   9.7871   9.8121
     9.8742   9.9014   9.9435  10.0140  10.0445  10.0829  10.1822  10.4652
    10.7016  10.8251  10.9140  11.1728  11.4551  11.5472  11.7406  11.8460

     occupation numbers 
     1.0000   1.0000   1.0000   1.0000   1.0000   1.0000   1.0000   1.0000
     1.0000   1.0000   1.0000   1.0000   1.0000   1.0000   1.0000   1.0000
     1.0000   1.0000   1.0000   1.0000   1.0000   1.0000   1.0000   1.0000
     1.0000   1.0000   1.0000   1.0000   1.0000   1.0000   1.0000   1.0000
     1.0000   1.0000   1.0000   1.0000   1.0000   1.0000   1.0000   1.0000
     1.0000   1.0000   1.0000   1.0000   1.0000   1.0000   1.0000   1.0000
     1.0000   1.0000   1.0000   1.0000   1.0000   1.0000   1.0000   1.0000
     1.0000   1.0000   1.0000   1.0000   1.0000   1.0000   1.0000   1.0000
     1.0000   1.0000   1.0000   1.0000   1.0000   1.0000   1.0000   1.0000
     1.0000   1.0000   1.0000   1.0000   1.0000   1.0000   1.0000   1.0000
     1.0000   1.0001   0.6954   0.3629   0.0021   0.0000   0.0000   0.0000
     0.0000   0.0000   0.0000   0.0000   0.0000   0.0000   0.0000   0.0000
     0.0000   0.0000   0.0000   0.0000   0.0000   0.0000   0.0000   0.0000
     0.0000   0.0000   0.0000   0.0000   0.0000   0.0000   0.0000   0.0000
     0.0000   0.0000   0.0000   0.0000   0.0000   0.0000   0.0000   0.0000

          k = 0.0833 0.3368 0.0000 ( 17369 PWs)   bands (ev):

   -50.0655 -50.0654 -50.0189 -49.9911 -49.9523 -49.9493 -49.7888 -49.7888
   -49.3472 -49.3472 -26.5575 -26.5467 -26.5396 -26.5056 -26.4903 -26.4705
   -26.4265 -26.3606 -26.3019 -26.2691 -26.2689 -26.2450 -26.2296 -26.2253
   -26.2161 -26.1871 -26.1717 -26.1482 -26.1318 -26.1258 -26.1107 -26.0986
   -25.9807 -25.9807 -25.7150 -25.7150 -25.6802 -25.6802 -25.4870 -25.4870
    -8.0693  -7.9982  -7.8842  -7.8035  -7.7317  -7.5746  -7.4123  -7.3131
    -7.2809   0.9117   1.0574   1.2501   1.3667   1.4096   1.4722   1.6242
     1.7401   1.9622   1.9714   2.3782   2.6048   2.6556   2.7211   2.8469
     2.9039   2.9395   3.0302   3.1236   3.2190   3.3166   3.4564   3.6876
     3.7200   3.8844   3.9303   4.0833   6.0241   6.2780   6.6851   7.1462
     7.3256   7.3338   7.6875   8.0184   8.2262   8.2646   8.4816   8.5918
     8.8289   8.8810   9.0832   9.1681   9.1849   9.2462   9.2977   9.3619
     9.4135   9.4760   9.5251   9.6933   9.6945   9.7757   9.8813   9.9508
     9.9832  10.0139  10.0560  10.0810  10.1225  10.1588  10.3175  10.5985
    10.9698  10.9858  11.1662  11.3775  11.3981  11.7329  11.8851  11.9100

     occupation numbers 
     1.0000   1.0000   1.0000   1.0000   1.0000   1.0000   1.0000   1.0000
     1.0000   1.0000   1.0000   1.0000   1.0000   1.0000   1.0000   1.0000
     1.0000   1.0000   1.0000   1.0000   1.0000   1.0000   1.0000   1.0000
     1.0000   1.0000   1.0000   1.0000   1.0000   1.0000   1.0000   1.0000
     1.0000   1.0000   1.0000   1.0000   1.0000   1.0000   1.0000   1.0000
     1.0000   1.0000   1.0000   1.0000   1.0000   1.0000   1.0000   1.0000
     1.0000   1.0000   1.0000   1.0000   1.0000   1.0000   1.0000   1.0000
     1.0000   1.0000   1.0000   1.0000   1.0000   1.0000   1.0000   1.0000
     1.0000   1.0000   1.0000   1.0000   1.0000   1.0000   1.0000   1.0000
     1.0000   1.0000   1.0000   1.0000   1.0000   1.0000   1.0000   1.0000
     1.0002   1.0003   0.9242   0.0017   0.0000   0.0000   0.0000   0.0000
     0.0000   0.0000   0.0000   0.0000   0.0000   0.0000   0.0000   0.0000
     0.0000   0.0000   0.0000   0.0000   0.0000   0.0000   0.0000   0.0000
     0.0000   0.0000   0.0000   0.0000   0.0000   0.0000   0.0000   0.0000
     0.0000   0.0000   0.0000   0.0000   0.0000   0.0000   0.0000   0.0000

          k = 0.0833 0.3849 0.0000 ( 17391 PWs)   bands (ev):

   -50.0572 -50.0572 -50.0086 -49.9841 -49.9462 -49.9441 -49.7813 -49.7813
   -49.3403 -49.3403 -26.5952 -26.5820 -26.5515 -26.5294 -26.5126 -26.4809
   -26.4634 -26.3823 -26.3210 -26.2938 -26.2887 -26.2638 -26.2524 -26.2400
   -26.2316 -26.2033 -26.1748 -26.1585 -26.1393 -26.1343 -26.1185 -26.1073
   -25.9951 -25.9951 -25.7315 -25.7315 -25.7062 -25.7062 -25.5001 -25.5001
    -7.8951  -7.8440  -7.7523  -7.6969  -7.6493  -7.5120  -7.3664  -7.2741
    -7.2507   0.6963   0.8611   1.0853   1.2756   1.3709   1.4022   1.5147
     1.6706   2.0081   2.0569   2.3576   2.5067   2.5955   2.6693   2.7513
     2.8379   2.8463   2.9412   2.9623   3.1034   3.2349   3.3717   3.6360
     3.6542   3.8132   3.8640   4.0572   5.8374   6.1094   6.5414   7.0254
     7.4524   7.4718   7.6061   8.1871   8.3210   8.5158   8.6628   8.7341
     8.9441   9.0606   9.1831   9.2836   9.3673   9.4022   9.4559   9.5220
     9.5580   9.6007   9.6789   9.7441   9.8004   9.8618   9.9448  10.0362
    10.0776  10.0916  10.1261  10.1543  10.1689  10.2322  10.4114  10.6887
    11.0478  11.1864  11.3368  11.5176  11.6963  11.7945  11.8093  11.8999

     occupation numbers 
     1.0000   1.0000   1.0000   1.0000   1.0000   1.0000   1.0000   1.0000
     1.0000   1.0000   1.0000   1.0000   1.0000   1.0000   1.0000   1.0000
     1.0000   1.0000   1.0000   1.0000   1.0000   1.0000   1.0000   1.0000
     1.0000   1.0000   1.0000   1.0000   1.0000   1.0000   1.0000   1.0000
     1.0000   1.0000   1.0000   1.0000   1.0000   1.0000   1.0000   1.0000
     1.0000   1.0000   1.0000   1.0000   1.0000   1.0000   1.0000   1.0000
     1.0000   1.0000   1.0000   1.0000   1.0000   1.0000   1.0000   1.0000
     1.0000   1.0000   1.0000   1.0000   1.0000   1.0000   1.0000   1.0000
     1.0000   1.0000   1.0000   1.0000   1.0000   1.0000   1.0000   1.0000
     1.0000   1.0000   1.0000   1.0000   1.0000   1.0000   1.0000   1.0000
     1.0111   1.0173   1.0823   0.0000   0.0000   0.0000   0.0000   0.0000
     0.0000   0.0000   0.0000   0.0000   0.0000   0.0000   0.0000   0.0000
     0.0000   0.0000   0.0000   0.0000   0.0000   0.0000   0.0000   0.0000
     0.0000   0.0000   0.0000   0.0000   0.0000   0.0000   0.0000   0.0000
     0.0000   0.0000   0.0000   0.0000   0.0000   0.0000   0.0000   0.0000

          k = 0.0833 0.4330 0.0000 ( 17416 PWs)   bands (ev):

   -50.0502 -50.0502 -49.9994 -49.9784 -49.9410 -49.9397 -49.7748 -49.7748
   -49.3344 -49.3343 -26.6384 -26.6239 -26.5836 -26.5531 -26.5287 -26.5168
   -26.4437 -26.3949 -26.3415 -26.3121 -26.2989 -26.2819 -26.2683 -26.2562
   -26.2382 -26.2171 -26.1776 -26.1674 -26.1444 -26.1396 -26.1227 -26.1146
   -26.0073 -26.0073 -25.7651 -25.7651 -25.7081 -25.7081 -25.5113 -25.5113
    -7.8252  -7.7704  -7.6774  -7.6233  -7.5694  -7.4235  -7.2751  -7.1816
    -7.1580   0.4063   0.5861   0.8339   1.0522   1.2320   1.4123   1.6188
     1.8296   2.0354   2.1982   2.3642   2.4215   2.5223   2.5985   2.6645
     2.7143   2.7675   2.8063   2.8943   3.0448   3.1805   3.3285   3.5788
     3.6466   3.7702   3.8261   4.0636   5.6964   5.9807   6.4299   6.9275
     7.4855   7.6275   7.6479   8.1319   8.6235   8.6716   8.8007   8.9818
     9.0615   9.2040   9.2680   9.4191   9.4449   9.5092   9.5906   9.6758
     9.7155   9.7607   9.8111   9.8717   9.9059   9.9382  10.0126  10.1014
    10.1314  10.1636  10.1709  10.1757  10.2068  10.2736  10.4703  10.7408
    11.0752  11.3295  11.5049  11.6227  11.6525  11.7512  11.9340  12.0736

     occupation numbers 
     1.0000   1.0000   1.0000   1.0000   1.0000   1.0000   1.0000   1.0000
     1.0000   1.0000   1.0000   1.0000   1.0000   1.0000   1.0000   1.0000
     1.0000   1.0000   1.0000   1.0000   1.0000   1.0000   1.0000   1.0000
     1.0000   1.0000   1.0000   1.0000   1.0000   1.0000   1.0000   1.0000
     1.0000   1.0000   1.0000   1.0000   1.0000   1.0000   1.0000   1.0000
     1.0000   1.0000   1.0000   1.0000   1.0000   1.0000   1.0000   1.0000
     1.0000   1.0000   1.0000   1.0000   1.0000   1.0000   1.0000   1.0000
     1.0000   1.0000   1.0000   1.0000   1.0000   1.0000   1.0000   1.0000
     1.0000   1.0000   1.0000   1.0000   1.0000   1.0000   1.0000   1.0000
     1.0000   1.0000   1.0000   1.0000   1.0000   1.0000   1.0000   1.0000
     1.0231   1.0692   1.0393   0.0000   0.0000   0.0000   0.0000   0.0000
     0.0000   0.0000   0.0000   0.0000   0.0000   0.0000   0.0000   0.0000
     0.0000   0.0000   0.0000   0.0000   0.0000   0.0000   0.0000   0.0000
     0.0000   0.0000   0.0000   0.0000   0.0000   0.0000   0.0000   0.0000
     0.0000   0.0000   0.0000   0.0000   0.0000   0.0000   0.0000   0.0000

          k = 0.0833 0.4811 0.0000 ( 17411 PWs)   bands (ev):

   -50.0447 -50.0447 -49.9920 -49.9743 -49.9371 -49.9363 -49.7698 -49.7698
   -49.3298 -49.3298 -26.6730 -26.6575 -26.6157 -26.5696 -26.5527 -26.5414
   -26.4285 -26.4077 -26.3488 -26.3168 -26.3065 -26.2931 -26.2765 -26.2701
   -26.2472 -26.2265 -26.1827 -26.1730 -26.1495 -26.1429 -26.1244 -26.1198
   -26.0166 -26.0165 -25.7916 -25.7916 -25.7082 -25.7082 -25.5199 -25.5199
    -7.8221  -7.7537  -7.6474  -7.5791  -7.5038  -7.3345  -7.1693  -7.0689
    -7.0386   0.1371   0.3357   0.6186   0.8983   1.1721   1.4600   1.7142
     1.9096   2.0132   2.3017   2.3389   2.4072   2.4889   2.5312   2.5533
     2.6036   2.7112   2.7461   2.8481   3.0192   3.1404   3.3138   3.5419
     3.6519   3.7429   3.8041   4.0828   5.6016   5.8931   6.3520   6.8571
     7.4360   7.7750   7.7829   8.0808   8.6528   8.9102   9.0488   9.1496
     9.2317   9.2758   9.4174   9.4573   9.5372   9.6107   9.6772   9.7734
     9.8531   9.8568   9.9281   9.9687   9.9862  10.0169  10.0671  10.1451
    10.1524  10.1810  10.2062  10.2213  10.2527  10.3268  10.5012  10.7519
    11.0777  11.4337  11.4987  11.5938  11.6966  11.8343  12.0836  12.1547

     occupation numbers 
     1.0000   1.0000   1.0000   1.0000   1.0000   1.0000   1.0000   1.0000
     1.0000   1.0000   1.0000   1.0000   1.0000   1.0000   1.0000   1.0000
     1.0000   1.0000   1.0000   1.0000   1.0000   1.0000   1.0000   1.0000
     1.0000   1.0000   1.0000   1.0000   1.0000   1.0000   1.0000   1.0000
     1.0000   1.0000   1.0000   1.0000   1.0000   1.0000   1.0000   1.0000
     1.0000   1.0000   1.0000   1.0000   1.0000   1.0000   1.0000   1.0000
     1.0000   1.0000   1.0000   1.0000   1.0000   1.0000   1.0000   1.0000
     1.0000   1.0000   1.0000   1.0000   1.0000   1.0000   1.0000   1.0000
     1.0000   1.0000   1.0000   1.0000   1.0000   1.0000   1.0000   1.0000
     1.0000   1.0000   1.0000   1.0000   1.0000   1.0000   1.0000   1.0000
     1.0073   0.4784   0.4371   0.0002   0.0000   0.0000   0.0000   0.0000
     0.0000   0.0000   0.0000   0.0000   0.0000   0.0000   0.0000   0.0000
     0.0000   0.0000   0.0000   0.0000   0.0000   0.0000   0.0000   0.0000
     0.0000   0.0000   0.0000   0.0000   0.0000   0.0000   0.0000   0.0000
     0.0000   0.0000   0.0000   0.0000   0.0000   0.0000   0.0000   0.0000

          k = 0.0833-0.6255 0.0000 ( 17393 PWs)   bands (ev):

   -50.0413 -50.0413 -49.9870 -49.9719 -49.9347 -49.9342 -49.7666 -49.7666
   -49.3269 -49.3269 -26.6951 -26.6790 -26.6365 -26.5809 -26.5716 -26.5551
   -26.4282 -26.4192 -26.3356 -26.3160 -26.3127 -26.2956 -26.2882 -26.2758
   -26.2567 -26.2319 -26.1873 -26.1758 -26.1526 -26.1459 -26.1248 -26.1228
   -26.0224 -26.0223 -25.8079 -25.8079 -25.7082 -25.7082 -25.5253 -25.5253
    -7.8332  -7.7553  -7.6378  -7.5566  -7.4638  -7.2744  -7.0916  -6.9817
    -6.9429  -0.0476   0.1679   0.4812   0.8100   1.1479   1.5063   1.7801
     1.9326   1.9852   2.3130   2.3401   2.4001   2.4129   2.4837   2.5153
     2.5680   2.6704   2.7394   2.8201   3.0069   3.1214   3.3125   3.5213
     3.6604   3.7276   3.7920   4.1003   5.5483   5.8432   6.3067   6.8151
     7.4005   7.8833   7.8863   8.0447   8.6389   9.0594   9.2258   9.3079
     9.3477   9.4024   9.4734   9.5231   9.5720   9.6652   9.7717   9.8105
     9.9029   9.9448   9.9784  10.0146  10.0234  10.0779  10.0951  10.1431
    10.1594  10.1697  10.2287  10.2359  10.3162  10.4224  10.5296  10.7308
    11.0588  11.4575  11.4873  11.5663  11.7640  11.9165  12.1067  12.3061

     occupation numbers 
     1.0000   1.0000   1.0000   1.0000   1.0000   1.0000   1.0000   1.0000
     1.0000   1.0000   1.0000   1.0000   1.0000   1.0000   1.0000   1.0000
     1.0000   1.0000   1.0000   1.0000   1.0000   1.0000   1.0000   1.0000
     1.0000   1.0000   1.0000   1.0000   1.0000   1.0000   1.0000   1.0000
     1.0000   1.0000   1.0000   1.0000   1.0000   1.0000   1.0000   1.0000
     1.0000   1.0000   1.0000   1.0000   1.0000   1.0000   1.0000   1.0000
     1.0000   1.0000   1.0000   1.0000   1.0000   1.0000   1.0000   1.0000
     1.0000   1.0000   1.0000   1.0000   1.0000   1.0000   1.0000   1.0000
     1.0000   1.0000   1.0000   1.0000   1.0000   1.0000   1.0000   1.0000
     1.0000   1.0000   1.0000   1.0000   1.0000   1.0000   1.0000   1.0000
     1.0027   0.0817   0.0765   0.0006   0.0000   0.0000   0.0000   0.0000
     0.0000   0.0000   0.0000   0.0000   0.0000   0.0000   0.0000   0.0000
     0.0000   0.0000   0.0000   0.0000   0.0000   0.0000   0.0000   0.0000
     0.0000   0.0000   0.0000   0.0000   0.0000   0.0000   0.0000   0.0000
     0.0000   0.0000   0.0000   0.0000   0.0000   0.0000   0.0000   0.0000

          k = 0.0833-0.5774 0.0000 ( 17363 PWs)   bands (ev):

   -50.0401 -50.0401 -49.9852 -49.9712 -49.9338 -49.9334 -49.7656 -49.7656
   -49.3259 -49.3259 -26.7027 -26.6863 -26.6437 -26.5849 -26.5782 -26.5598
   -26.4302 -26.4237 -26.3197 -26.3184 -26.3153 -26.3009 -26.2917 -26.2779
   -26.2606 -26.2338 -26.1891 -26.1768 -26.1534 -26.1474 -26.1245 -26.1241
   -26.0243 -26.0243 -25.8133 -25.8133 -25.7081 -25.7081 -25.5271 -25.5271
    -7.8385  -7.7574  -7.6358  -7.5496  -7.4505  -7.2535  -7.0638  -6.9494
    -6.9068  -0.1129   0.1092   0.4341   0.7811   1.1417   1.5262   1.8030
     1.9337   1.9753   2.3322   2.3372   2.3518   2.3954   2.4753   2.4962
     2.5717   2.6542   2.7438   2.8109   3.0031   3.1168   3.3138   3.5145
     3.6644   3.7228   3.7881   4.1072   5.5313   5.8272   6.2920   6.8012
     7.3881   7.9240   7.9246   8.0309   8.6336   9.0856   9.3224   9.3742
     9.3822   9.4649   9.5021   9.5438   9.5744   9.6820   9.8019   9.8299
     9.9162   9.9595  10.0002  10.0221  10.0386  10.1024  10.1121  10.1385
    10.1400  10.1666  10.2377  10.2389  10.3348  10.4729  10.5492  10.7124
    11.0460  11.4458  11.4912  11.5704  11.7841  11.9431  12.1276  12.3422

     occupation numbers 
     1.0000   1.0000   1.0000   1.0000   1.0000   1.0000   1.0000   1.0000
     1.0000   1.0000   1.0000   1.0000   1.0000   1.0000   1.0000   1.0000
     1.0000   1.0000   1.0000   1.0000   1.0000   1.0000   1.0000   1.0000
     1.0000   1.0000   1.0000   1.0000   1.0000   1.0000   1.0000   1.0000
     1.0000   1.0000   1.0000   1.0000   1.0000   1.0000   1.0000   1.0000
     1.0000   1.0000   1.0000   1.0000   1.0000   1.0000   1.0000   1.0000
     1.0000   1.0000   1.0000   1.0000   1.0000   1.0000   1.0000   1.0000
     1.0000   1.0000   1.0000   1.0000   1.0000   1.0000   1.0000   1.0000
     1.0000   1.0000   1.0000   1.0000   1.0000   1.0000   1.0000   1.0000
     1.0000   1.0000   1.0000   1.0000   1.0000   1.0000   1.0000   1.0000
     1.0018   0.0311   0.0307   0.0011   0.0000   0.0000   0.0000   0.0000
     0.0000   0.0000   0.0000   0.0000   0.0000   0.0000   0.0000   0.0000
     0.0000   0.0000   0.0000   0.0000   0.0000   0.0000   0.0000   0.0000
     0.0000   0.0000   0.0000   0.0000   0.0000   0.0000   0.0000   0.0000
     0.0000   0.0000   0.0000   0.0000   0.0000   0.0000   0.0000   0.0000

          k = 0.1250 0.2165 0.0000 ( 17345 PWs)   bands (ev):

   -50.0840 -50.0839 -50.0408 -50.0072 -49.9662 -49.9612 -49.8058 -49.8058
   -49.3628 -49.3628 -26.6038 -26.5704 -26.5146 -26.4382 -26.3996 -26.3653
   -26.3164 -26.2793 -26.2585 -26.2377 -26.2190 -26.2180 -26.2008 -26.1826
   -26.1692 -26.1501 -26.1393 -26.1268 -26.1071 -26.0958 -26.0638 -26.0618
   -25.9505 -25.9505 -25.7176 -25.7176 -25.5776 -25.5776 -25.4595 -25.4595
    -8.5544  -8.4342  -8.2549  -8.0915  -7.9291  -7.6818  -7.4346  -7.2733
    -7.1904   0.7045   0.8514   1.0486   1.2688   1.5497   1.8346   2.0436
     2.2531   2.3900   2.4400   2.6629   2.7136   2.7239   2.8613   2.9424
     3.0018   3.1751   3.2050   3.4115   3.5623   3.7028   3.8060   3.8540
     3.9369   4.0488   4.2107   4.2655   6.8387   6.8988   6.9529   7.0814
     7.2122   7.3198   7.5292   7.7259   7.8620   7.8952   8.1415   8.3830
     8.5318   8.5886   8.6719   8.7434   8.8079   8.8895   9.0691   9.0990
     9.2727   9.3724   9.4150   9.4465   9.5141   9.5582   9.6886   9.7284
     9.7422   9.7534   9.9195   9.9315  10.0064  10.0292  10.0380  10.0559
    10.1744  10.4961  10.8301  11.1511  11.2775  11.3784  11.5284  11.6439

     occupation numbers 
     1.0000   1.0000   1.0000   1.0000   1.0000   1.0000   1.0000   1.0000
     1.0000   1.0000   1.0000   1.0000   1.0000   1.0000   1.0000   1.0000
     1.0000   1.0000   1.0000   1.0000   1.0000   1.0000   1.0000   1.0000
     1.0000   1.0000   1.0000   1.0000   1.0000   1.0000   1.0000   1.0000
     1.0000   1.0000   1.0000   1.0000   1.0000   1.0000   1.0000   1.0000
     1.0000   1.0000   1.0000   1.0000   1.0000   1.0000   1.0000   1.0000
     1.0000   1.0000   1.0000   1.0000   1.0000   1.0000   1.0000   1.0000
     1.0000   1.0000   1.0000   1.0000   1.0000   1.0000   1.0000   1.0000
     1.0000   1.0000   1.0000   1.0000   1.0000   1.0000   1.0000   1.0000
     1.0000   1.0000   1.0000   1.0000   1.0000   1.0000   1.0000   1.0000
     1.0000   1.0002   1.0488   0.7464   0.1267   0.0628   0.0000   0.0000
     0.0000   0.0000   0.0000   0.0000   0.0000   0.0000   0.0000   0.0000
     0.0000   0.0000   0.0000   0.0000   0.0000   0.0000   0.0000   0.0000
     0.0000   0.0000   0.0000   0.0000   0.0000   0.0000   0.0000   0.0000
     0.0000   0.0000   0.0000   0.0000   0.0000   0.0000   0.0000   0.0000

          k = 0.1250 0.2646 0.0000 ( 17363 PWs)   bands (ev):

   -50.0758 -50.0757 -50.0312 -50.0000 -49.9600 -49.9559 -49.7982 -49.7982
   -49.3559 -49.3559 -26.5751 -26.5531 -26.5131 -26.4640 -26.4431 -26.4124
   -26.3667 -26.3164 -26.2838 -26.2475 -26.2421 -26.2382 -26.2033 -26.1957
   -26.1896 -26.1639 -26.1572 -26.1418 -26.1231 -26.1123 -26.0906 -26.0831
   -25.9689 -25.9689 -25.7151 -25.7151 -25.6209 -25.6209 -25.4755 -25.4755
    -8.3326  -8.2325  -8.0818  -7.9562  -7.8366  -7.6340  -7.4318  -7.3076
    -7.2538   0.9628   1.0426   1.1432   1.2585   1.4514   1.7013   1.8866
     2.0253   2.1753   2.3167   2.4566   2.6490   2.7414   2.8196   2.9343
     2.9755   3.0631   3.1609   3.2990   3.4025   3.4653   3.6165   3.6212
     3.7380   3.8706   3.9734   4.0305   6.6737   6.7925   7.0310   7.0907
     7.2015   7.3848   7.5150   7.7239   7.9765   8.0460   8.1254   8.3992
     8.6436   8.7374   8.8282   8.9455   8.9908   9.1067   9.2071   9.2380
     9.3026   9.4464   9.4998   9.5562   9.6657   9.6731   9.7622   9.7987
     9.8567   9.9183   9.9697  10.0446  10.0670  10.1363  10.2334  10.3334
    10.4707  10.5606  10.8017  11.1057  11.4325  11.6753  11.7615  11.8817

     occupation numbers 
     1.0000   1.0000   1.0000   1.0000   1.0000   1.0000   1.0000   1.0000
     1.0000   1.0000   1.0000   1.0000   1.0000   1.0000   1.0000   1.0000
     1.0000   1.0000   1.0000   1.0000   1.0000   1.0000   1.0000   1.0000
     1.0000   1.0000   1.0000   1.0000   1.0000   1.0000   1.0000   1.0000
     1.0000   1.0000   1.0000   1.0000   1.0000   1.0000   1.0000   1.0000
     1.0000   1.0000   1.0000   1.0000   1.0000   1.0000   1.0000   1.0000
     1.0000   1.0000   1.0000   1.0000   1.0000   1.0000   1.0000   1.0000
     1.0000   1.0000   1.0000   1.0000   1.0000   1.0000   1.0000   1.0000
     1.0000   1.0000   1.0000   1.0000   1.0000   1.0000   1.0000   1.0000
     1.0000   1.0000   1.0000   1.0000   1.0000   1.0000   1.0000   1.0000
     1.0000   1.0016   1.0394   0.7570   0.0070   0.0006   0.0000   0.0000
     0.0000   0.0000   0.0000   0.0000   0.0000   0.0000   0.0000   0.0000
     0.0000   0.0000   0.0000   0.0000   0.0000   0.0000   0.0000   0.0000
     0.0000   0.0000   0.0000   0.0000   0.0000   0.0000   0.0000   0.0000
     0.0000   0.0000   0.0000   0.0000   0.0000   0.0000   0.0000   0.0000

          k = 0.1250 0.3127 0.0000 ( 17396 PWs)   bands (ev):

   -50.0673 -50.0672 -50.0210 -49.9926 -49.9536 -49.9504 -49.7904 -49.7904
   -49.3487 -49.3487 -26.5512 -26.5439 -26.5246 -26.4925 -26.4802 -26.4591
   -26.4162 -26.3506 -26.3026 -26.2715 -26.2690 -26.2435 -26.2189 -26.2150
   -26.2077 -26.1844 -26.1693 -26.1560 -26.1390 -26.1284 -26.1062 -26.0945
   -25.9879 -25.9879 -25.7135 -25.7135 -25.6643 -25.6643 -25.4923 -25.4923
    -8.1021  -8.0258  -7.9065  -7.8207  -7.7445  -7.5858  -7.4261  -7.3307
    -7.3017   1.0541   1.1677   1.2886   1.3053   1.3461   1.5185   1.7059
     1.8569   1.9840   1.9932   2.4224   2.6775   2.7140   2.7881   2.8850
     2.9361   2.9707   3.0303   3.1440   3.2358   3.3112   3.4589   3.5140
     3.5806   3.6554   3.7712   3.9161   6.4686   6.6278   6.9534   7.2109
     7.2447   7.4255   7.5964   7.8386   7.9587   8.2411   8.3126   8.4194
     8.6813   8.8705   9.1042   9.1214   9.1890   9.2283   9.3261   9.3664
     9.4549   9.5014   9.5202   9.6725   9.7178   9.7387   9.8799   9.9518
     9.9899  10.0377  10.0899  10.0988  10.1217  10.2735  10.3772  10.5275
    10.7866  10.7997  10.9622  11.0915  11.3064  11.8600  11.9121  11.9180

     occupation numbers 
     1.0000   1.0000   1.0000   1.0000   1.0000   1.0000   1.0000   1.0000
     1.0000   1.0000   1.0000   1.0000   1.0000   1.0000   1.0000   1.0000
     1.0000   1.0000   1.0000   1.0000   1.0000   1.0000   1.0000   1.0000
     1.0000   1.0000   1.0000   1.0000   1.0000   1.0000   1.0000   1.0000
     1.0000   1.0000   1.0000   1.0000   1.0000   1.0000   1.0000   1.0000
     1.0000   1.0000   1.0000   1.0000   1.0000   1.0000   1.0000   1.0000
     1.0000   1.0000   1.0000   1.0000   1.0000   1.0000   1.0000   1.0000
     1.0000   1.0000   1.0000   1.0000   1.0000   1.0000   1.0000   1.0000
     1.0000   1.0000   1.0000   1.0000   1.0000   1.0000   1.0000   1.0000
     1.0000   1.0000   1.0000   1.0000   1.0000   1.0000   1.0000   1.0000
     1.0000   1.0055   1.0833   0.1947   0.0120   0.0000   0.0000   0.0000
     0.0000   0.0000   0.0000   0.0000   0.0000   0.0000   0.0000   0.0000
     0.0000   0.0000   0.0000   0.0000   0.0000   0.0000   0.0000   0.0000
     0.0000   0.0000   0.0000   0.0000   0.0000   0.0000   0.0000   0.0000
     0.0000   0.0000   0.0000   0.0000   0.0000   0.0000   0.0000   0.0000

          k = 0.1250 0.3608 0.0000 ( 17385 PWs)   bands (ev):

   -50.0590 -50.0590 -50.0109 -49.9856 -49.9475 -49.9452 -49.7829 -49.7829
   -49.3418 -49.3418 -26.5695 -26.5595 -26.5385 -26.5125 -26.5014 -26.4815
   -26.4581 -26.3753 -26.3159 -26.2977 -26.2959 -26.2519 -26.2408 -26.2381
   -26.2238 -26.2080 -26.1723 -26.1694 -26.1517 -26.1355 -26.1151 -26.1037
   -26.0059 -26.0059 -25.7166 -25.7166 -25.7010 -25.7010 -25.5086 -25.5086
    -7.8948  -7.8440  -7.7542  -7.7025  -7.6610  -7.5355  -7.4057  -7.3217
    -7.3069   0.9092   1.0512   1.2420   1.3424   1.4020   1.4389   1.5091
     1.5898   2.0071   2.0325   2.4092   2.5826   2.6672   2.7298   2.7827
     2.8288   2.8787   2.9574   3.0459   3.1378   3.1980   3.2648   3.4334
     3.4636   3.5273   3.6372   3.8719   6.2886   6.4706   6.8319   7.2525
     7.3697   7.4070   7.8121   7.8746   8.1292   8.3520   8.4656   8.5925
     8.7582   9.0252   9.0984   9.3121   9.3841   9.3937   9.4591   9.5048
     9.5534   9.5918   9.6669   9.7148   9.7794   9.8723   9.9756  10.0485
    10.1037  10.1229  10.1402  10.1527  10.2641  10.3455  10.4718  10.6630
    10.9187  11.0455  11.1856  11.2698  11.4372  11.8780  11.9415  11.9618

     occupation numbers 
     1.0000   1.0000   1.0000   1.0000   1.0000   1.0000   1.0000   1.0000
     1.0000   1.0000   1.0000   1.0000   1.0000   1.0000   1.0000   1.0000
     1.0000   1.0000   1.0000   1.0000   1.0000   1.0000   1.0000   1.0000
     1.0000   1.0000   1.0000   1.0000   1.0000   1.0000   1.0000   1.0000
     1.0000   1.0000   1.0000   1.0000   1.0000   1.0000   1.0000   1.0000
     1.0000   1.0000   1.0000   1.0000   1.0000   1.0000   1.0000   1.0000
     1.0000   1.0000   1.0000   1.0000   1.0000   1.0000   1.0000   1.0000
     1.0000   1.0000   1.0000   1.0000   1.0000   1.0000   1.0000   1.0000
     1.0000   1.0000   1.0000   1.0000   1.0000   1.0000   1.0000   1.0000
     1.0000   1.0000   1.0000   1.0000   1.0000   1.0000   1.0000   1.0000
     1.0010   1.0033   0.2969   0.0983   0.0000   0.0000   0.0000   0.0000
     0.0000   0.0000   0.0000   0.0000   0.0000   0.0000   0.0000   0.0000
     0.0000   0.0000   0.0000   0.0000   0.0000   0.0000   0.0000   0.0000
     0.0000   0.0000   0.0000   0.0000   0.0000   0.0000   0.0000   0.0000
     0.0000   0.0000   0.0000   0.0000   0.0000   0.0000   0.0000   0.0000

          k = 0.1250 0.4090 0.0000 ( 17417 PWs)   bands (ev):

   -50.0516 -50.0516 -50.0014 -49.9795 -49.9421 -49.9406 -49.7761 -49.7761
   -49.3356 -49.3356 -26.6096 -26.5974 -26.5600 -26.5391 -26.5137 -26.5033
   -26.4527 -26.3885 -26.3332 -26.3197 -26.3124 -26.2725 -26.2604 -26.2548
   -26.2323 -26.2292 -26.1821 -26.1724 -26.1612 -26.1382 -26.1205 -26.1122
   -26.0218 -26.0218 -25.7449 -25.7449 -25.7078 -25.7078 -25.5231 -25.5231
    -7.7716  -7.7318  -7.6543  -7.6168  -7.5845  -7.4647  -7.3421  -7.2574
    -7.2457   0.6531   0.8098   1.0210   1.1805   1.2672   1.3847   1.5722
     1.7813   2.0574   2.1662   2.3919   2.4618   2.5552   2.6368   2.7356
     2.7610   2.8419   2.8810   2.9180   2.9709   3.1201   3.1696   3.3507
     3.4054   3.4576   3.5690   3.8707   6.1457   6.3422   6.7245   7.1824
     7.5074   7.5327   7.7516   8.1901   8.2879   8.4180   8.6893   8.7828
     8.8689   9.0812   9.2013   9.3738   9.4504   9.5422   9.6045   9.6490
     9.6677   9.7373   9.7634   9.8572   9.8710   9.9693  10.0439  10.1102
    10.1525  10.1664  10.2157  10.2185  10.3261  10.3784  10.5445  10.7573
    10.9938  11.1912  11.3418  11.5328  11.7067  11.8232  11.8575  11.9267

     occupation numbers 
     1.0000   1.0000   1.0000   1.0000   1.0000   1.0000   1.0000   1.0000
     1.0000   1.0000   1.0000   1.0000   1.0000   1.0000   1.0000   1.0000
     1.0000   1.0000   1.0000   1.0000   1.0000   1.0000   1.0000   1.0000
     1.0000   1.0000   1.0000   1.0000   1.0000   1.0000   1.0000   1.0000
     1.0000   1.0000   1.0000   1.0000   1.0000   1.0000   1.0000   1.0000
     1.0000   1.0000   1.0000   1.0000   1.0000   1.0000   1.0000   1.0000
     1.0000   1.0000   1.0000   1.0000   1.0000   1.0000   1.0000   1.0000
     1.0000   1.0000   1.0000   1.0000   1.0000   1.0000   1.0000   1.0000
     1.0000   1.0000   1.0000   1.0000   1.0000   1.0000   1.0000   1.0000
     1.0000   1.0000   1.0000   1.0000   1.0000   1.0000   1.0000   1.0000
     1.0347   1.0512   0.6068   0.0000   0.0000   0.0000   0.0000   0.0000
     0.0000   0.0000   0.0000   0.0000   0.0000   0.0000   0.0000   0.0000
     0.0000   0.0000   0.0000   0.0000   0.0000   0.0000   0.0000   0.0000
     0.0000   0.0000   0.0000   0.0000   0.0000   0.0000   0.0000   0.0000
     0.0000   0.0000   0.0000   0.0000   0.0000   0.0000   0.0000   0.0000

          k = 0.1250 0.4571 0.0000 ( 17422 PWs)   bands (ev):

   -50.0456 -50.0456 -49.9932 -49.9749 -49.9377 -49.9368 -49.7706 -49.7706
   -49.3305 -49.3305 -26.6458 -26.6319 -26.5917 -26.5548 -26.5333 -26.5279
   -26.4312 -26.3979 -26.3493 -26.3323 -26.3214 -26.2878 -26.2794 -26.2655
   -26.2466 -26.2369 -26.1905 -26.1757 -26.1675 -26.1410 -26.1232 -26.1188
   -26.0345 -26.0344 -25.7730 -25.7730 -25.7077 -25.7077 -25.5349 -25.5349
    -7.7498  -7.6972  -7.6095  -7.5631  -7.5128  -7.3731  -7.2376  -7.1505
    -7.1351   0.3788   0.5516   0.7930   1.0116   1.2107   1.4372   1.6757
     1.8932   2.0511   2.2940   2.3508   2.4136   2.5097   2.5684   2.6901
     2.6998   2.7240   2.7695   2.8111   2.9024   3.0965   3.1143   3.2882
     3.3725   3.4071   3.5461   3.8905   6.0430   6.2483   6.6431   7.1135
     7.6107   7.6789   7.7374   8.2548   8.5259   8.6509   8.8295   8.9566
     9.0563   9.1147   9.3548   9.3723   9.5395   9.5778   9.6847   9.7707
     9.7996   9.8441   9.8703   9.9514   9.9787  10.0224  10.0942  10.1486
    10.1771  10.1816  10.2870  10.2994  10.3119  10.3974  10.5930  10.8161
    11.0398  11.2905  11.5218  11.5974  11.6605  11.8316  11.9107  12.1181

     occupation numbers 
     1.0000   1.0000   1.0000   1.0000   1.0000   1.0000   1.0000   1.0000
     1.0000   1.0000   1.0000   1.0000   1.0000   1.0000   1.0000   1.0000
     1.0000   1.0000   1.0000   1.0000   1.0000   1.0000   1.0000   1.0000
     1.0000   1.0000   1.0000   1.0000   1.0000   1.0000   1.0000   1.0000
     1.0000   1.0000   1.0000   1.0000   1.0000   1.0000   1.0000   1.0000
     1.0000   1.0000   1.0000   1.0000   1.0000   1.0000   1.0000   1.0000
     1.0000   1.0000   1.0000   1.0000   1.0000   1.0000   1.0000   1.0000
     1.0000   1.0000   1.0000   1.0000   1.0000   1.0000   1.0000   1.0000
     1.0000   1.0000   1.0000   1.0000   1.0000   1.0000   1.0000   1.0000
     1.0000   1.0000   1.0000   1.0000   1.0000   1.0000   1.0000   1.0000
     1.0808   0.9557   0.6851   0.0000   0.0000   0.0000   0.0000   0.0000
     0.0000   0.0000   0.0000   0.0000   0.0000   0.0000   0.0000   0.0000
     0.0000   0.0000   0.0000   0.0000   0.0000   0.0000   0.0000   0.0000
     0.0000   0.0000   0.0000   0.0000   0.0000   0.0000   0.0000   0.0000
     0.0000   0.0000   0.0000   0.0000   0.0000   0.0000   0.0000   0.0000

          k = 0.1250-0.6495 0.0000 ( 17425 PWs)   bands (ev):

   -50.0413 -50.0413 -49.9871 -49.9719 -49.9347 -49.9341 -49.7666 -49.7666
   -49.3269 -49.3269 -26.6722 -26.6571 -26.6159 -26.5659 -26.5546 -26.5412
   -26.4219 -26.4080 -26.3502 -26.3370 -26.3285 -26.2970 -26.2931 -26.2694
   -26.2574 -26.2440 -26.1945 -26.1822 -26.1693 -26.1455 -26.1241 -26.1223
   -26.0433 -26.0432 -25.7928 -25.7928 -25.7074 -25.7074 -25.5433 -25.5433
    -7.7613  -7.6960  -7.5950  -7.5336  -7.4624  -7.2985  -7.1424  -7.0481
    -7.0243   0.1596   0.3514   0.6281   0.9077   1.1892   1.4952   1.7572
     1.9367   2.0139   2.3130   2.3457   2.4248   2.4941   2.5407   2.5528
     2.6140   2.6688   2.7350   2.7632   2.8779   3.0785   3.1029   3.2549
     3.3491   3.3699   3.5452   3.9139   5.9781   6.1883   6.5896   7.0655
     7.6097   7.8040   7.8204   8.2202   8.7224   8.8524   9.0225   9.1249
     9.1600   9.2652   9.3811   9.4655   9.5547   9.6096   9.7294   9.8263
     9.8757   9.9096   9.9438  10.0111  10.0310  10.0449  10.1155  10.1622
    10.1880  10.1932  10.2508  10.3481  10.3793  10.4248  10.6257  10.8414
    11.0503  11.3426  11.5109  11.6194  11.6938  11.8567  12.0394  12.2080

     occupation numbers 
     1.0000   1.0000   1.0000   1.0000   1.0000   1.0000   1.0000   1.0000
     1.0000   1.0000   1.0000   1.0000   1.0000   1.0000   1.0000   1.0000
     1.0000   1.0000   1.0000   1.0000   1.0000   1.0000   1.0000   1.0000
     1.0000   1.0000   1.0000   1.0000   1.0000   1.0000   1.0000   1.0000
     1.0000   1.0000   1.0000   1.0000   1.0000   1.0000   1.0000   1.0000
     1.0000   1.0000   1.0000   1.0000   1.0000   1.0000   1.0000   1.0000
     1.0000   1.0000   1.0000   1.0000   1.0000   1.0000   1.0000   1.0000
     1.0000   1.0000   1.0000   1.0000   1.0000   1.0000   1.0000   1.0000
     1.0000   1.0000   1.0000   1.0000   1.0000   1.0000   1.0000   1.0000
     1.0000   1.0000   1.0000   1.0000   1.0000   1.0000   1.0000   1.0000
     1.0812   0.3331   0.2620   0.0000   0.0000   0.0000   0.0000   0.0000
     0.0000   0.0000   0.0000   0.0000   0.0000   0.0000   0.0000   0.0000
     0.0000   0.0000   0.0000   0.0000   0.0000   0.0000   0.0000   0.0000
     0.0000   0.0000   0.0000   0.0000   0.0000   0.0000   0.0000   0.0000
     0.0000   0.0000   0.0000   0.0000   0.0000   0.0000   0.0000   0.0000

          k = 0.1250-0.6014 0.0000 ( 17418 PWs)   bands (ev):

   -50.0391 -50.0391 -49.9837 -49.9705 -49.9331 -49.9328 -49.7646 -49.7646
   -49.3250 -49.3250 -26.6859 -26.6703 -26.6285 -26.5718 -26.5656 -26.5488
   -26.4222 -26.4148 -26.3439 -26.3394 -26.3263 -26.3127 -26.2924 -26.2706
   -26.2622 -26.2507 -26.1939 -26.1890 -26.1687 -26.1496 -26.1242 -26.1235
   -26.0478 -26.0478 -25.8028 -25.8028 -25.7073 -25.7073 -25.5476 -25.5476
    -7.7720  -7.7001  -7.5911  -7.5204  -7.4373  -7.2589  -7.0892  -6.9880
    -6.9576   0.0399   0.2440   0.5425   0.8569   1.1829   1.5356   1.8023
     1.9417   1.9890   2.3246   2.3718   2.4019   2.4379   2.4778   2.5358
     2.5918   2.6239   2.7324   2.7461   2.8710   3.0606   3.1162   3.2428
     3.3349   3.3519   3.5503   3.9289   5.9468   6.1595   6.5634   7.0412
     7.5939   7.8768   7.8856   8.1997   8.7308   9.0734   9.1691   9.2123
     9.2514   9.3916   9.4236   9.4998   9.5336   9.6055   9.7257   9.8369
     9.9243   9.9389   9.9755   9.9988  10.0573  10.0681  10.1215  10.1638
    10.1783  10.1952  10.2185  10.3433  10.4228  10.4763  10.6500  10.8441
    11.0419  11.3569  11.4778  11.6260  11.7545  11.8642  12.1385  12.2150

     occupation numbers 
     1.0000   1.0000   1.0000   1.0000   1.0000   1.0000   1.0000   1.0000
     1.0000   1.0000   1.0000   1.0000   1.0000   1.0000   1.0000   1.0000
     1.0000   1.0000   1.0000   1.0000   1.0000   1.0000   1.0000   1.0000
     1.0000   1.0000   1.0000   1.0000   1.0000   1.0000   1.0000   1.0000
     1.0000   1.0000   1.0000   1.0000   1.0000   1.0000   1.0000   1.0000
     1.0000   1.0000   1.0000   1.0000   1.0000   1.0000   1.0000   1.0000
     1.0000   1.0000   1.0000   1.0000   1.0000   1.0000   1.0000   1.0000
     1.0000   1.0000   1.0000   1.0000   1.0000   1.0000   1.0000   1.0000
     1.0000   1.0000   1.0000   1.0000   1.0000   1.0000   1.0000   1.0000
     1.0000   1.0000   1.0000   1.0000   1.0000   1.0000   1.0000   1.0000
     1.0831   0.0939   0.0777   0.0000   0.0000   0.0000   0.0000   0.0000
     0.0000   0.0000   0.0000   0.0000   0.0000   0.0000   0.0000   0.0000
     0.0000   0.0000   0.0000   0.0000   0.0000   0.0000   0.0000   0.0000
     0.0000   0.0000   0.0000   0.0000   0.0000   0.0000   0.0000   0.0000
     0.0000   0.0000   0.0000   0.0000   0.0000   0.0000   0.0000   0.0000

          k = 0.1667 0.2887 0.0000 ( 17381 PWs)   bands (ev):

   -50.0678 -50.0678 -50.0218 -49.9931 -49.9540 -49.9508 -49.7910 -49.7910
   -49.3492 -49.3492 -26.5500 -26.5439 -26.5185 -26.4858 -26.4764 -26.4540
   -26.4137 -26.3461 -26.3049 -26.2710 -26.2702 -26.2440 -26.2149 -26.2107
   -26.2045 -26.1784 -26.1695 -26.1610 -26.1466 -26.1264 -26.1043 -26.0930
   -25.9913 -25.9913 -25.7130 -25.7130 -25.6579 -25.6579 -25.4949 -25.4949
    -8.1136  -8.0354  -7.9141  -7.8264  -7.7484  -7.5892  -7.4305  -7.3368
    -7.3093   1.1755   1.1845   1.2483   1.2628   1.3445   1.5389   1.7353
     1.8918   1.9980   2.0172   2.4422   2.6935   2.7661   2.8262   2.9027
     2.9489   2.9988   3.0454   3.1907   3.2160   3.2879   3.3419   3.3800
     3.5935   3.6892   3.7356   3.7504   6.7960   6.8365   7.0057   7.1074
     7.2453   7.3348   7.6333   7.6574   8.0081   8.1689   8.2606   8.3361
     8.6417   8.8916   9.0469   9.1453   9.1796   9.2087   9.3436   9.3799
     9.4473   9.5166   9.5541   9.6566   9.7008   9.7362   9.8816   9.9556
     9.9808  10.0474  10.0974  10.1072  10.1380  10.3776  10.5241  10.5875
    10.6183  10.6307  10.7757  11.0127  11.2854  11.8571  11.8883  12.1012

     occupation numbers 
     1.0000   1.0000   1.0000   1.0000   1.0000   1.0000   1.0000   1.0000
     1.0000   1.0000   1.0000   1.0000   1.0000   1.0000   1.0000   1.0000
     1.0000   1.0000   1.0000   1.0000   1.0000   1.0000   1.0000   1.0000
     1.0000   1.0000   1.0000   1.0000   1.0000   1.0000   1.0000   1.0000
     1.0000   1.0000   1.0000   1.0000   1.0000   1.0000   1.0000   1.0000
     1.0000   1.0000   1.0000   1.0000   1.0000   1.0000   1.0000   1.0000
     1.0000   1.0000   1.0000   1.0000   1.0000   1.0000   1.0000   1.0000
     1.0000   1.0000   1.0000   1.0000   1.0000   1.0000   1.0000   1.0000
     1.0000   1.0000   1.0000   1.0000   1.0000   1.0000   1.0000   1.0000
     1.0000   1.0000   1.0000   1.0000   1.0000   1.0000   1.0000   1.0000
     1.0000   1.0003   1.0627   1.0189   0.0025   0.0000   0.0000   0.0000
     0.0000   0.0000   0.0000   0.0000   0.0000   0.0000   0.0000   0.0000
     0.0000   0.0000   0.0000   0.0000   0.0000   0.0000   0.0000   0.0000
     0.0000   0.0000   0.0000   0.0000   0.0000   0.0000   0.0000   0.0000
     0.0000   0.0000   0.0000   0.0000   0.0000   0.0000   0.0000   0.0000

          k = 0.1667 0.3368 0.0000 ( 17433 PWs)   bands (ev):

   -50.0599 -50.0599 -50.0121 -49.9864 -49.9481 -49.9458 -49.7837 -49.7837
   -49.3426 -49.3426 -26.5535 -26.5471 -26.5297 -26.5034 -26.4903 -26.4868
   -26.4554 -26.3701 -26.3184 -26.3005 -26.2987 -26.2473 -26.2377 -26.2292
   -26.2186 -26.2026 -26.1805 -26.1720 -26.1654 -26.1333 -26.1130 -26.1019
   -26.0142 -26.0142 -25.7119 -25.7119 -25.6930 -25.6930 -25.5151 -25.5151
    -7.8956  -7.8431  -7.7530  -7.7028  -7.6633  -7.5448  -7.4283  -7.3498
    -7.3414   1.0977   1.2031   1.2564   1.3473   1.3895   1.4806   1.5196
     1.5657   2.0105   2.0252   2.4620   2.6918   2.7505   2.7655   2.8130
     2.8361   2.8882   2.9379   3.0301   3.0418   3.1540   3.2135   3.2879
     3.3954   3.4513   3.5334   3.6552   6.7049   6.7798   7.0595   7.2086
     7.2772   7.4794   7.5772   7.8292   8.0011   8.2755   8.4332   8.4746
     8.6362   9.0183   9.1092   9.2838   9.3452   9.3802   9.4375   9.5364
     9.5483   9.6275   9.6465   9.7089   9.7331   9.8897  10.0001  10.0524
    10.0953  10.1225  10.1638  10.1656  10.3274  10.5377  10.6172  10.7479
    10.8519  10.8720  11.0174  11.0459  11.1679  11.8703  11.9208  12.1528

     occupation numbers 
     1.0000   1.0000   1.0000   1.0000   1.0000   1.0000   1.0000   1.0000
     1.0000   1.0000   1.0000   1.0000   1.0000   1.0000   1.0000   1.0000
     1.0000   1.0000   1.0000   1.0000   1.0000   1.0000   1.0000   1.0000
     1.0000   1.0000   1.0000   1.0000   1.0000   1.0000   1.0000   1.0000
     1.0000   1.0000   1.0000   1.0000   1.0000   1.0000   1.0000   1.0000
     1.0000   1.0000   1.0000   1.0000   1.0000   1.0000   1.0000   1.0000
     1.0000   1.0000   1.0000   1.0000   1.0000   1.0000   1.0000   1.0000
     1.0000   1.0000   1.0000   1.0000   1.0000   1.0000   1.0000   1.0000
     1.0000   1.0000   1.0000   1.0000   1.0000   1.0000   1.0000   1.0000
     1.0000   1.0000   1.0000   1.0000   1.0000   1.0000   1.0000   1.0000
     1.0000   1.0204   1.0787   0.2278   0.0031   0.0000   0.0000   0.0000
     0.0000   0.0000   0.0000   0.0000   0.0000   0.0000   0.0000   0.0000
     0.0000   0.0000   0.0000   0.0000   0.0000   0.0000   0.0000   0.0000
     0.0000   0.0000   0.0000   0.0000   0.0000   0.0000   0.0000   0.0000
     0.0000   0.0000   0.0000   0.0000   0.0000   0.0000   0.0000   0.0000

          k = 0.1667 0.3849 0.0000 ( 17421 PWs)   bands (ev):

   -50.0525 -50.0525 -50.0026 -49.9803 -49.9427 -49.9411 -49.7770 -49.7770
   -49.3363 -49.3363 -26.5834 -26.5758 -26.5418 -26.5297 -26.5025 -26.4967
   -26.4614 -26.3847 -26.3306 -26.3266 -26.3242 -26.2615 -26.2579 -26.2459
   -26.2343 -26.2249 -26.1974 -26.1813 -26.1693 -26.1361 -26.1190 -26.1110
   -26.0354 -26.0353 -25.7274 -25.7274 -25.7085 -25.7085 -25.5343 -25.5343
    -7.7195  -7.6921  -7.6281  -7.6046  -7.5888  -7.4955  -7.4059  -7.3204
    -7.3177   0.8974   1.0269   1.1912   1.2363   1.2773   1.3514   1.5295
     1.7321   2.0765   2.1473   2.4551   2.5491   2.6254   2.6882   2.7175
     2.7399   2.7970   2.8501   2.9660   3.0123   3.0635   3.1185   3.1264
     3.1735   3.2657   3.4381   3.6395   6.5829   6.6874   7.0078   7.3309
     7.4071   7.5299   7.7546   7.9708   8.0637   8.3632   8.5702   8.6952
     8.7210   9.0172   9.2053   9.3295   9.4885   9.5118   9.5699   9.6127
     9.6570   9.7088   9.7473   9.7936   9.8770  10.0029  10.0700  10.1140
    10.1448  10.1577  10.2453  10.2464  10.4832  10.6009  10.6638  10.8300
    10.9776  11.0548  11.1738  11.3223  11.4689  11.8099  11.9101  12.0175

     occupation numbers 
     1.0000   1.0000   1.0000   1.0000   1.0000   1.0000   1.0000   1.0000
     1.0000   1.0000   1.0000   1.0000   1.0000   1.0000   1.0000   1.0000
     1.0000   1.0000   1.0000   1.0000   1.0000   1.0000   1.0000   1.0000
     1.0000   1.0000   1.0000   1.0000   1.0000   1.0000   1.0000   1.0000
     1.0000   1.0000   1.0000   1.0000   1.0000   1.0000   1.0000   1.0000
     1.0000   1.0000   1.0000   1.0000   1.0000   1.0000   1.0000   1.0000
     1.0000   1.0000   1.0000   1.0000   1.0000   1.0000   1.0000   1.0000
     1.0000   1.0000   1.0000   1.0000   1.0000   1.0000   1.0000   1.0000
     1.0000   1.0000   1.0000   1.0000   1.0000   1.0000   1.0000   1.0000
     1.0000   1.0000   1.0000   1.0000   1.0000   1.0000   1.0000   1.0002
     1.0033   1.0492   0.5901   0.0083   0.0003   0.0000   0.0000   0.0000
     0.0000   0.0000   0.0000   0.0000   0.0000   0.0000   0.0000   0.0000
     0.0000   0.0000   0.0000   0.0000   0.0000   0.0000   0.0000   0.0000
     0.0000   0.0000   0.0000   0.0000   0.0000   0.0000   0.0000   0.0000
     0.0000   0.0000   0.0000   0.0000   0.0000   0.0000   0.0000   0.0000

          k = 0.1667 0.4330 0.0000 ( 17434 PWs)   bands (ev):

   -50.0462 -50.0462 -49.9941 -49.9753 -49.9381 -49.9372 -49.7711 -49.7711
   -49.3310 -49.3310 -26.6166 -26.6059 -26.5681 -26.5437 -26.5233 -26.5105
   -26.4393 -26.3929 -26.3521 -26.3464 -26.3349 -26.2794 -26.2766 -26.2605
   -26.2544 -26.2330 -26.2092 -26.1884 -26.1719 -26.1391 -26.1224 -26.1187
   -26.0532 -26.0531 -25.7541 -25.7541 -25.7079 -25.7079 -25.5509 -25.5509
    -7.6583  -7.6276  -7.5634  -7.5417  -7.5186  -7.4150  -7.3201  -7.2341
    -7.2308   0.6460   0.7866   0.9742   1.1107   1.2230   1.4046   1.6364
     1.8718   2.0989   2.2897   2.3863   2.4427   2.5362   2.5831   2.6564
     2.7196   2.7835   2.8067   2.8642   2.9037   2.9122   2.9751   3.0496
     3.0877   3.1414   3.4069   3.6570   6.4839   6.6063   6.9415   7.3591
     7.5499   7.5989   7.9368   8.0862   8.3292   8.4231   8.6959   8.8496
     8.9309   9.0065   9.3009   9.3436   9.5515   9.5695   9.6662   9.7081
     9.7591   9.7787   9.8490   9.8883   9.9754  10.0535  10.1108  10.1491
    10.1699  10.1725  10.3207  10.3214  10.5712  10.5961  10.7048  10.8866
    11.0512  11.2105  11.3781  11.5591  11.6960  11.7775  11.8432  11.9757

     occupation numbers 
     1.0000   1.0000   1.0000   1.0000   1.0000   1.0000   1.0000   1.0000
     1.0000   1.0000   1.0000   1.0000   1.0000   1.0000   1.0000   1.0000
     1.0000   1.0000   1.0000   1.0000   1.0000   1.0000   1.0000   1.0000
     1.0000   1.0000   1.0000   1.0000   1.0000   1.0000   1.0000   1.0000
     1.0000   1.0000   1.0000   1.0000   1.0000   1.0000   1.0000   1.0000
     1.0000   1.0000   1.0000   1.0000   1.0000   1.0000   1.0000   1.0000
     1.0000   1.0000   1.0000   1.0000   1.0000   1.0000   1.0000   1.0000
     1.0000   1.0000   1.0000   1.0000   1.0000   1.0000   1.0000   1.0000
     1.0000   1.0000   1.0000   1.0000   1.0000   1.0000   1.0000   1.0000
     1.0000   1.0000   1.0000   1.0000   1.0000   1.0000   1.0000   1.0007
     1.0630   1.0833   0.0222   0.0001   0.0000   0.0000   0.0000   0.0000
     0.0000   0.0000   0.0000   0.0000   0.0000   0.0000   0.0000   0.0000
     0.0000   0.0000   0.0000   0.0000   0.0000   0.0000   0.0000   0.0000
     0.0000   0.0000   0.0000   0.0000   0.0000   0.0000   0.0000   0.0000
     0.0000   0.0000   0.0000   0.0000   0.0000   0.0000   0.0000   0.0000

          k = 0.1667-0.6736 0.0000 ( 17428 PWs)   bands (ev):

   -50.0413 -50.0413 -49.9871 -49.9719 -49.9346 -49.9341 -49.7667 -49.7667
   -49.3269 -49.3269 -26.6438 -26.6308 -26.5916 -26.5516 -26.5398 -26.5231
   -26.4227 -26.4013 -26.3658 -26.3571 -26.3444 -26.2995 -26.2890 -26.2717
   -26.2633 -26.2402 -26.2147 -26.1930 -26.1753 -26.1454 -26.1238 -26.1226
   -26.0664 -26.0663 -25.7746 -25.7746 -25.7072 -25.7072 -25.5638 -25.5638
    -7.6674  -7.6203  -7.5417  -7.5056  -7.4609  -7.3305  -7.2114  -7.1280
    -7.1199   0.4176   0.5776   0.8047   1.0162   1.2218   1.4708   1.7244
     1.9374   2.0613   2.3179   2.3473   2.4277   2.5199   2.5611   2.6367
     2.6688   2.6942   2.7476   2.7585   2.7794   2.8376   2.9183   3.0125
     3.0282   3.0797   3.4055   3.6852   6.4152   6.5479   6.8902   7.3289
     7.6769   7.7203   7.9102   8.4113   8.4431   8.6326   8.8504   8.9494
     9.0556   9.1428   9.3011   9.4309   9.5430   9.5874   9.6907   9.7753
     9.8071   9.8520   9.9049   9.9558  10.0128  10.0555  10.1223  10.1576
    10.1775  10.1800  10.3898  10.3899  10.5748  10.6019  10.7369  10.9438
    11.1211  11.2819  11.4971  11.5896  11.6766  11.8219  11.8990  12.1263

     occupation numbers 
     1.0000   1.0000   1.0000   1.0000   1.0000   1.0000   1.0000   1.0000
     1.0000   1.0000   1.0000   1.0000   1.0000   1.0000   1.0000   1.0000
     1.0000   1.0000   1.0000   1.0000   1.0000   1.0000   1.0000   1.0000
     1.0000   1.0000   1.0000   1.0000   1.0000   1.0000   1.0000   1.0000
     1.0000   1.0000   1.0000   1.0000   1.0000   1.0000   1.0000   1.0000
     1.0000   1.0000   1.0000   1.0000   1.0000   1.0000   1.0000   1.0000
     1.0000   1.0000   1.0000   1.0000   1.0000   1.0000   1.0000   1.0000
     1.0000   1.0000   1.0000   1.0000   1.0000   1.0000   1.0000   1.0000
     1.0000   1.0000   1.0000   1.0000   1.0000   1.0000   1.0000   1.0000
     1.0000   1.0000   1.0000   1.0000   1.0000   1.0000   1.0000   1.0002
     0.9624   0.7755   0.0440   0.0000   0.0000   0.0000   0.0000   0.0000
     0.0000   0.0000   0.0000   0.0000   0.0000   0.0000   0.0000   0.0000
     0.0000   0.0000   0.0000   0.0000   0.0000   0.0000   0.0000   0.0000
     0.0000   0.0000   0.0000   0.0000   0.0000   0.0000   0.0000   0.0000
     0.0000   0.0000   0.0000   0.0000   0.0000   0.0000   0.0000   0.0000

          k = 0.1667-0.6255 0.0000 ( 17425 PWs)   bands (ev):

   -50.0383 -50.0383 -49.9824 -49.9700 -49.9325 -49.9322 -49.7638 -49.7638
   -49.3243 -49.3243 -26.6613 -26.6469 -26.6067 -26.5554 -26.5494 -26.5332
   -26.4172 -26.4092 -26.3688 -26.3625 -26.3486 -26.3185 -26.2964 -26.2725
   -26.2649 -26.2494 -26.2145 -26.1988 -26.1758 -26.1531 -26.1241 -26.1237
   -26.0745 -26.0744 -25.7875 -25.7875 -25.7067 -25.7067 -25.5720 -25.5720
    -7.6831  -7.6256  -7.5355  -7.4869  -7.4261  -7.2751  -7.1353  -7.0481
    -7.0330   0.2635   0.4403   0.6979   0.9599   1.2281   1.5290   1.7848
     1.9502   2.0174   2.3104   2.3603   2.4466   2.4844   2.5342   2.5582
     2.6046   2.6408   2.6780   2.7399   2.7491   2.8341   2.8783   2.9714
     2.9949   3.0781   3.4136   3.7087   6.3753   6.5138   6.8590   7.3034
     7.7511   7.8159   7.9089   8.3989   8.7650   8.8730   8.9488   9.0636
     9.1459   9.3059   9.3141   9.4465   9.5168   9.5500   9.6577   9.7666
     9.8447   9.8755   9.9271   9.9858  10.0038  10.0390  10.1188  10.1573
    10.1739  10.1770  10.4426  10.4429  10.5605  10.6116  10.7652  10.9795
    11.1350  11.2939  11.5217  11.5675  11.6977  11.8879  11.9554  12.2347

     occupation numbers 
     1.0000   1.0000   1.0000   1.0000   1.0000   1.0000   1.0000   1.0000
     1.0000   1.0000   1.0000   1.0000   1.0000   1.0000   1.0000   1.0000
     1.0000   1.0000   1.0000   1.0000   1.0000   1.0000   1.0000   1.0000
     1.0000   1.0000   1.0000   1.0000   1.0000   1.0000   1.0000   1.0000
     1.0000   1.0000   1.0000   1.0000   1.0000   1.0000   1.0000   1.0000
     1.0000   1.0000   1.0000   1.0000   1.0000   1.0000   1.0000   1.0000
     1.0000   1.0000   1.0000   1.0000   1.0000   1.0000   1.0000   1.0000
     1.0000   1.0000   1.0000   1.0000   1.0000   1.0000   1.0000   1.0000
     1.0000   1.0000   1.0000   1.0000   1.0000   1.0000   1.0000   1.0000
     1.0000   1.0000   1.0000   1.0000   1.0000   1.0000   1.0000   1.0001
     0.6099   0.2805   0.0454   0.0000   0.0000   0.0000   0.0000   0.0000
     0.0000   0.0000   0.0000   0.0000   0.0000   0.0000   0.0000   0.0000
     0.0000   0.0000   0.0000   0.0000   0.0000   0.0000   0.0000   0.0000
     0.0000   0.0000   0.0000   0.0000   0.0000   0.0000   0.0000   0.0000
     0.0000   0.0000   0.0000   0.0000   0.0000   0.0000   0.0000   0.0000

          k = 0.1667-0.5774 0.0000 ( 17399 PWs)   bands (ev):

   -50.0372 -50.0372 -49.9807 -49.9695 -49.9318 -49.9316 -49.7629 -49.7629
   -49.3234 -49.3234 -26.6674 -26.6525 -26.6118 -26.5563 -26.5525 -26.5372
   -26.4170 -26.4124 -26.3677 -26.3658 -26.3465 -26.3281 -26.2991 -26.2704
   -26.2613 -26.2577 -26.2122 -26.2031 -26.1746 -26.1571 -26.1242 -26.1239
   -26.0772 -26.0771 -25.7918 -25.7918 -25.7065 -25.7065 -25.5748 -25.5748
    -7.6894  -7.6284  -7.5343  -7.4810  -7.4145  -7.2561  -7.1089  -7.0190
    -7.0007   0.2094   0.3926   0.6613   0.9409   1.2315   1.5541   1.8060
     1.9468   2.0011   2.3344   2.3799   2.4126   2.4607   2.5036   2.5521
     2.5822   2.6137   2.6578   2.7271   2.7556   2.8418   2.8546   2.9556
     2.9904   3.0837   3.4183   3.7177   6.3623   6.5028   6.8486   7.2942
     7.7694   7.8516   7.9177   8.3926   8.8452   9.0659   9.0725   9.1023
     9.1072   9.3265   9.3553   9.4576   9.4918   9.5094   9.6191   9.7442
     9.8526   9.9108   9.9222   9.9585  10.0063  10.0321  10.1153  10.1580
    10.1719  10.1747  10.4631  10.4632  10.5558  10.6161  10.7763  10.9880
    11.1345  11.2912  11.5080  11.5849  11.7023  11.9150  11.9795  12.2347

     occupation numbers 
     1.0000   1.0000   1.0000   1.0000   1.0000   1.0000   1.0000   1.0000
     1.0000   1.0000   1.0000   1.0000   1.0000   1.0000   1.0000   1.0000
     1.0000   1.0000   1.0000   1.0000   1.0000   1.0000   1.0000   1.0000
     1.0000   1.0000   1.0000   1.0000   1.0000   1.0000   1.0000   1.0000
     1.0000   1.0000   1.0000   1.0000   1.0000   1.0000   1.0000   1.0000
     1.0000   1.0000   1.0000   1.0000   1.0000   1.0000   1.0000   1.0000
     1.0000   1.0000   1.0000   1.0000   1.0000   1.0000   1.0000   1.0000
     1.0000   1.0000   1.0000   1.0000   1.0000   1.0000   1.0000   1.0000
     1.0000   1.0000   1.0000   1.0000   1.0000   1.0000   1.0000   1.0000
     1.0000   1.0000   1.0000   1.0000   1.0000   1.0000   1.0000   1.0001
     0.5088   0.1544   0.0366   0.0000   0.0000   0.0000   0.0000   0.0000
     0.0000   0.0000   0.0000   0.0000   0.0000   0.0000   0.0000   0.0000
     0.0000   0.0000   0.0000   0.0000   0.0000   0.0000   0.0000   0.0000
     0.0000   0.0000   0.0000   0.0000   0.0000   0.0000   0.0000   0.0000
     0.0000   0.0000   0.0000   0.0000   0.0000   0.0000   0.0000   0.0000

          k = 0.2083 0.3608 0.0000 ( 17443 PWs)   bands (ev):

   -50.0529 -50.0529 -50.0030 -49.9805 -49.9429 -49.9413 -49.7772 -49.7772
   -49.3366 -49.3366 -26.5696 -26.5690 -26.5339 -26.5284 -26.4988 -26.4937
   -26.4660 -26.3834 -26.3315 -26.3292 -26.3283 -26.2575 -26.2561 -26.2435
   -26.2303 -26.2219 -26.1999 -26.1964 -26.1684 -26.1350 -26.1184 -26.1107
   -26.0412 -26.0411 -25.7192 -25.7192 -25.7101 -25.7101 -25.5390 -25.5390
    -7.6975  -7.6733  -7.6147  -7.5971  -7.5854  -7.5058  -7.4406  -7.3470
    -7.3467   1.0826   1.1143   1.1715   1.2439   1.3047   1.3361   1.5082
     1.7076   2.0850   2.1415   2.5136   2.6539   2.6729   2.6815   2.7123
     2.7230   2.7845   2.8066   2.8507   2.9285   2.9368   3.0770   3.1853
     3.2663   3.2848   3.4041   3.4058   6.8653   6.8664   7.1918   7.2119
     7.4013   7.4223   7.7591   7.7729   8.1378   8.2476   8.6212   8.6216
     8.6652   8.9863   9.2724   9.3005   9.4227   9.5430   9.5588   9.5683
     9.6824   9.7159   9.7161   9.7642   9.8831  10.0129  10.0868  10.1126
    10.1372  10.1545  10.2544  10.2551  10.5171  10.7309  10.8862  10.8929
    10.9563  11.0286  11.0309  11.2199  11.2238  11.8136  11.8866  12.0346

     occupation numbers 
     1.0000   1.0000   1.0000   1.0000   1.0000   1.0000   1.0000   1.0000
     1.0000   1.0000   1.0000   1.0000   1.0000   1.0000   1.0000   1.0000
     1.0000   1.0000   1.0000   1.0000   1.0000   1.0000   1.0000   1.0000
     1.0000   1.0000   1.0000   1.0000   1.0000   1.0000   1.0000   1.0000
     1.0000   1.0000   1.0000   1.0000   1.0000   1.0000   1.0000   1.0000
     1.0000   1.0000   1.0000   1.0000   1.0000   1.0000   1.0000   1.0000
     1.0000   1.0000   1.0000   1.0000   1.0000   1.0000   1.0000   1.0000
     1.0000   1.0000   1.0000   1.0000   1.0000   1.0000   1.0000   1.0000
     1.0000   1.0000   1.0000   1.0000   1.0000   1.0000   1.0000   1.0000
     1.0000   1.0000   1.0000   1.0000   1.0000   1.0000   1.0000   1.0000
     1.0027   1.0051   0.5652   0.4898   0.0000   0.0000   0.0000   0.0000
     0.0000   0.0000   0.0000   0.0000   0.0000   0.0000   0.0000   0.0000
     0.0000   0.0000   0.0000   0.0000   0.0000   0.0000   0.0000   0.0000
     0.0000   0.0000   0.0000   0.0000   0.0000   0.0000   0.0000   0.0000
     0.0000   0.0000   0.0000   0.0000   0.0000   0.0000   0.0000   0.0000

          k = 0.2083 0.4090 0.0000 ( 17453 PWs)   bands (ev):

   -50.0465 -50.0465 -49.9946 -49.9756 -49.9383 -49.9374 -49.7714 -49.7714
   -49.3313 -49.3313 -26.5933 -26.5881 -26.5526 -26.5421 -26.5210 -26.4960
   -26.4484 -26.3924 -26.3580 -26.3533 -26.3422 -26.2735 -26.2711 -26.2641
   -26.2446 -26.2334 -26.2202 -26.2057 -26.1705 -26.1378 -26.1222 -26.1192
   -26.0657 -26.0654 -25.7408 -25.7408 -25.7091 -25.7090 -25.5619 -25.5618
    -7.5655  -7.5612  -7.5234  -7.5226  -7.5152  -7.4566  -7.4166  -7.2954
    -7.2953   0.8911   0.9803   1.0633   1.1351   1.2099   1.3752   1.6079
     1.8531   2.1430   2.2926   2.4543   2.5140   2.5832   2.5863   2.5917
     2.6310   2.6484   2.7076   2.8100   2.8191   2.8732   2.9666   3.0484
     3.0786   3.1582   3.2559   3.4064   6.8606   6.8955   7.2098   7.3887
     7.4460   7.6627   7.7214   7.9915   8.1724   8.3647   8.6272   8.8158
     8.8689   8.9634   9.2672   9.3966   9.5251   9.5673   9.6234   9.6855
     9.7142   9.7613   9.8000   9.8634   9.9763  10.0723  10.1246  10.1465
    10.1614  10.1678  10.3286  10.3294  10.6676  10.8489  10.8961  10.9720
    11.0480  11.1399  11.3182  11.4677  11.5335  11.7385  11.8379  11.9392

     occupation numbers 
     1.0000   1.0000   1.0000   1.0000   1.0000   1.0000   1.0000   1.0000
     1.0000   1.0000   1.0000   1.0000   1.0000   1.0000   1.0000   1.0000
     1.0000   1.0000   1.0000   1.0000   1.0000   1.0000   1.0000   1.0000
     1.0000   1.0000   1.0000   1.0000   1.0000   1.0000   1.0000   1.0000
     1.0000   1.0000   1.0000   1.0000   1.0000   1.0000   1.0000   1.0000
     1.0000   1.0000   1.0000   1.0000   1.0000   1.0000   1.0000   1.0000
     1.0000   1.0000   1.0000   1.0000   1.0000   1.0000   1.0000   1.0000
     1.0000   1.0000   1.0000   1.0000   1.0000   1.0000   1.0000   1.0000
     1.0000   1.0000   1.0000   1.0000   1.0000   1.0000   1.0000   1.0000
     1.0000   1.0000   1.0000   1.0000   1.0000   1.0000   1.0000   1.0019
     1.0095   1.0055   0.7701   0.0043   0.0000   0.0000   0.0000   0.0000
     0.0000   0.0000   0.0000   0.0000   0.0000   0.0000   0.0000   0.0000
     0.0000   0.0000   0.0000   0.0000   0.0000   0.0000   0.0000   0.0000
     0.0000   0.0000   0.0000   0.0000   0.0000   0.0000   0.0000   0.0000
     0.0000   0.0000   0.0000   0.0000   0.0000   0.0000   0.0000   0.0000

          k = 0.2083-0.6976 0.0000 ( 17440 PWs)   bands (ev):

   -50.0413 -50.0413 -49.9872 -49.9719 -49.9346 -49.9341 -49.7667 -49.7667
   -49.3269 -49.3269 -26.6154 -26.6062 -26.5705 -26.5480 -26.5321 -26.5019
   -26.4334 -26.4036 -26.3798 -26.3673 -26.3558 -26.2967 -26.2856 -26.2787
   -26.2569 -26.2361 -26.2334 -26.2065 -26.1757 -26.1455 -26.1248 -26.1243
   -26.0847 -26.0843 -25.7580 -25.7580 -25.7079 -25.7079 -25.5814 -25.5814
    -7.5603  -7.5385  -7.4887  -7.4789  -7.4584  -7.3696  -7.3021  -7.2034
    -7.2029   0.6846   0.8009   0.9592   1.0877   1.2225   1.4366   1.6901
     1.9345   2.1284   2.3291   2.3628   2.4406   2.5001   2.5047   2.5572
     2.5597   2.6410   2.6753   2.7426   2.7482   2.7713   2.8392   2.9246
     2.9624   3.0008   3.2495   3.4360   6.8250   6.8780   7.1881   7.4975
     7.5906   7.7163   8.0035   8.1436   8.2687   8.5633   8.6452   8.9496
     8.9936   9.0633   9.2523   9.4552   9.5122   9.6072   9.6644   9.7139
     9.7472   9.8010   9.8571   9.9101  10.0033  10.0710  10.1252  10.1527
    10.1680  10.1728  10.3890  10.3893  10.7705  10.8657  10.9391  10.9922
    11.1503  11.3392  11.4834  11.5941  11.6702  11.7525  11.8342  11.9266

     occupation numbers 
     1.0000   1.0000   1.0000   1.0000   1.0000   1.0000   1.0000   1.0000
     1.0000   1.0000   1.0000   1.0000   1.0000   1.0000   1.0000   1.0000
     1.0000   1.0000   1.0000   1.0000   1.0000   1.0000   1.0000   1.0000
     1.0000   1.0000   1.0000   1.0000   1.0000   1.0000   1.0000   1.0000
     1.0000   1.0000   1.0000   1.0000   1.0000   1.0000   1.0000   1.0000
     1.0000   1.0000   1.0000   1.0000   1.0000   1.0000   1.0000   1.0000
     1.0000   1.0000   1.0000   1.0000   1.0000   1.0000   1.0000   1.0000
     1.0000   1.0000   1.0000   1.0000   1.0000   1.0000   1.0000   1.0000
     1.0000   1.0000   1.0000   1.0000   1.0000   1.0000   1.0000   1.0000
     1.0000   1.0000   1.0000   1.0000   1.0000   1.0000   1.0000   1.0291
     1.0827   0.7957   0.0029   0.0000   0.0000   0.0000   0.0000   0.0000
     0.0000   0.0000   0.0000   0.0000   0.0000   0.0000   0.0000   0.0000
     0.0000   0.0000   0.0000   0.0000   0.0000   0.0000   0.0000   0.0000
     0.0000   0.0000   0.0000   0.0000   0.0000   0.0000   0.0000   0.0000
     0.0000   0.0000   0.0000   0.0000   0.0000   0.0000   0.0000   0.0000

          k = 0.2083-0.6495 0.0000 ( 17434 PWs)   bands (ev):

   -50.0377 -50.0377 -49.9815 -49.9697 -49.9321 -49.9318 -49.7633 -49.7633
   -49.3238 -49.3238 -26.6322 -26.6201 -26.5826 -26.5471 -26.5352 -26.5114
   -26.4271 -26.4174 -26.3900 -26.3740 -26.3655 -26.3214 -26.3033 -26.2804
   -26.2611 -26.2391 -26.2357 -26.2073 -26.1804 -26.1564 -26.1275 -26.1273
   -26.0965 -26.0961 -25.7701 -25.7701 -25.7069 -25.7069 -25.5957 -25.5957
    -7.5796  -7.5423  -7.4773  -7.4543  -7.4177  -7.3015  -7.2029  -7.1170
    -7.1141   0.5284   0.6686   0.8709   1.0612   1.2542   1.5000   1.7488
     1.9523   2.0644   2.2942   2.3359   2.4089   2.4445   2.4891   2.5080
     2.5581   2.6109   2.6259   2.6792   2.6866   2.7349   2.7566   2.8240
     2.8285   2.9940   3.2619   3.4670   6.7947   6.8588   7.1634   7.5358
     7.7092   7.7777   8.1182   8.3876   8.5395   8.6451   8.8169   8.9564
     9.1184   9.2191   9.2597   9.4159   9.4967   9.5148   9.6247   9.7158
     9.7733   9.8184   9.8758   9.9248   9.9963  10.0397  10.1150  10.1433
    10.1602  10.1688  10.4374  10.4375  10.8361  10.8726  10.9666  11.0318
    11.2345  11.3851  11.4850  11.5909  11.6973  11.7657  11.9420  12.0085

     occupation numbers 
     1.0000   1.0000   1.0000   1.0000   1.0000   1.0000   1.0000   1.0000
     1.0000   1.0000   1.0000   1.0000   1.0000   1.0000   1.0000   1.0000
     1.0000   1.0000   1.0000   1.0000   1.0000   1.0000   1.0000   1.0000
     1.0000   1.0000   1.0000   1.0000   1.0000   1.0000   1.0000   1.0000
     1.0000   1.0000   1.0000   1.0000   1.0000   1.0000   1.0000   1.0000
     1.0000   1.0000   1.0000   1.0000   1.0000   1.0000   1.0000   1.0000
     1.0000   1.0000   1.0000   1.0000   1.0000   1.0000   1.0000   1.0000
     1.0000   1.0000   1.0000   1.0000   1.0000   1.0000   1.0000   1.0000
     1.0000   1.0000   1.0000   1.0000   1.0000   1.0000   1.0000   1.0000
     1.0000   1.0000   1.0000   1.0000   1.0000   1.0000   1.0000   1.0533
     0.8304   0.4641   0.0000   0.0000   0.0000   0.0000   0.0000   0.0000
     0.0000   0.0000   0.0000   0.0000   0.0000   0.0000   0.0000   0.0000
     0.0000   0.0000   0.0000   0.0000   0.0000   0.0000   0.0000   0.0000
     0.0000   0.0000   0.0000   0.0000   0.0000   0.0000   0.0000   0.0000
     0.0000   0.0000   0.0000   0.0000   0.0000   0.0000   0.0000   0.0000

          k = 0.2083-0.6014 0.0000 ( 17414 PWs)   bands (ev):

   -50.0358 -50.0358 -49.9783 -49.9689 -49.9308 -49.9306 -49.7615 -49.7615
   -49.3222 -49.3222 -26.6413 -26.6276 -26.5887 -26.5408 -26.5351 -26.5222
   -26.4286 -26.4253 -26.3898 -26.3813 -26.3658 -26.3377 -26.3141 -26.2828
   -26.2558 -26.2448 -26.2330 -26.2102 -26.1799 -26.1657 -26.1299 -26.1296
   -26.1012 -26.1009 -25.7763 -25.7763 -25.7062 -25.7062 -25.6033 -25.6033
    -7.5916  -7.5468  -7.4738  -7.4427  -7.3967  -7.2662  -7.1516  -7.0676
    -7.0615   0.4455   0.5983   0.8225   1.0466   1.2778   1.5463   1.7772
     1.9384   2.0232   2.3110   2.3378   2.3879   2.4121   2.4679   2.4792
     2.5475   2.5501   2.5963   2.6305   2.6650   2.6880   2.7281   2.7750
     2.8117   3.0071   3.2734   3.4861   6.7787   6.8483   7.1496   7.5375
     7.7763   7.8336   8.1104   8.5780   8.7618   8.8705   8.9628   8.9843
     9.0702   9.2426   9.2932   9.3696   9.4369   9.4764   9.5397   9.6595
     9.7604   9.8545   9.8664   9.9266   9.9631  10.0226  10.1122  10.1418
    10.1558  10.1622  10.4671  10.4675  10.8715  10.8863  10.9749  11.0584
    11.2558  11.3485  11.4756  11.5894  11.7230  11.8011  12.0103  12.0408

     occupation numbers 
     1.0000   1.0000   1.0000   1.0000   1.0000   1.0000   1.0000   1.0000
     1.0000   1.0000   1.0000   1.0000   1.0000   1.0000   1.0000   1.0000
     1.0000   1.0000   1.0000   1.0000   1.0000   1.0000   1.0000   1.0000
     1.0000   1.0000   1.0000   1.0000   1.0000   1.0000   1.0000   1.0000
     1.0000   1.0000   1.0000   1.0000   1.0000   1.0000   1.0000   1.0000
     1.0000   1.0000   1.0000   1.0000   1.0000   1.0000   1.0000   1.0000
     1.0000   1.0000   1.0000   1.0000   1.0000   1.0000   1.0000   1.0000
     1.0000   1.0000   1.0000   1.0000   1.0000   1.0000   1.0000   1.0000
     1.0000   1.0000   1.0000   1.0000   1.0000   1.0000   1.0000   1.0000
     1.0000   1.0000   1.0000   1.0000   1.0000   1.0000   1.0000   1.0545
     0.4719   0.2118   0.0000   0.0000   0.0000   0.0000   0.0000   0.0000
     0.0000   0.0000   0.0000   0.0000   0.0000   0.0000   0.0000   0.0000
     0.0000   0.0000   0.0000   0.0000   0.0000   0.0000   0.0000   0.0000
     0.0000   0.0000   0.0000   0.0000   0.0000   0.0000   0.0000   0.0000
     0.0000   0.0000   0.0000   0.0000   0.0000   0.0000   0.0000   0.0000

          k = 0.2500-0.7217 0.0000 ( 17473 PWs)   bands (ev):

   -50.0414 -50.0414 -49.9872 -49.9719 -49.9346 -49.9341 -49.7667 -49.7667
   -49.3269 -49.3269 -26.6001 -26.5949 -26.5630 -26.5512 -26.5298 -26.4901
   -26.4420 -26.4081 -26.3822 -26.3721 -26.3599 -26.2959 -26.2843 -26.2770
   -26.2539 -26.2454 -26.2310 -26.2123 -26.1761 -26.1457 -26.1259 -26.1258
   -26.0915 -26.0909 -25.7507 -25.7507 -25.7087 -25.7087 -25.5886 -25.5886
    -7.4874  -7.4870  -7.4667  -7.4667  -7.4401  -7.4030  -7.3822  -7.2381
    -7.2381   0.8594   0.8961   0.9951   1.0971   1.2126   1.4187   1.6740
     1.9322   2.1865   2.3327   2.3555   2.4113   2.4439   2.4664   2.5089
     2.5156   2.5789   2.6534   2.6575   2.7079   2.7634   2.9072   2.9170
     3.0637   3.0987   3.1710   3.2028   7.0410   7.0476   7.4164   7.4529
     7.5863   7.6527   7.9065   7.9946   8.3107   8.4202   8.6573   8.9299
     8.9971   9.0321   9.2395   9.4943   9.5327   9.5506   9.6779   9.6962
     9.7041   9.7874   9.8257   9.8978  10.0005  10.0785  10.1276  10.1480
    10.1655  10.1704  10.3881  10.3881  10.8140  10.9526  11.0063  11.1013
    11.2359  11.3360  11.4432  11.6612  11.6998  11.7205  11.7996  11.8692

     occupation numbers 
     1.0000   1.0000   1.0000   1.0000   1.0000   1.0000   1.0000   1.0000
     1.0000   1.0000   1.0000   1.0000   1.0000   1.0000   1.0000   1.0000
     1.0000   1.0000   1.0000   1.0000   1.0000   1.0000   1.0000   1.0000
     1.0000   1.0000   1.0000   1.0000   1.0000   1.0000   1.0000   1.0000
     1.0000   1.0000   1.0000   1.0000   1.0000   1.0000   1.0000   1.0000
     1.0000   1.0000   1.0000   1.0000   1.0000   1.0000   1.0000   1.0000
     1.0000   1.0000   1.0000   1.0000   1.0000   1.0000   1.0000   1.0000
     1.0000   1.0000   1.0000   1.0000   1.0000   1.0000   1.0000   1.0000
     1.0000   1.0000   1.0000   1.0000   1.0000   1.0000   1.0000   1.0000
     1.0000   1.0000   1.0000   1.0000   1.0000   1.0000   1.0043   1.0112
     1.0818   1.0295   0.0481   0.0039   0.0000   0.0000   0.0000   0.0000
     0.0000   0.0000   0.0000   0.0000   0.0000   0.0000   0.0000   0.0000
     0.0000   0.0000   0.0000   0.0000   0.0000   0.0000   0.0000   0.0000
     0.0000   0.0000   0.0000   0.0000   0.0000   0.0000   0.0000   0.0000
     0.0000   0.0000   0.0000   0.0000   0.0000   0.0000   0.0000   0.0000

          k = 0.2500-0.6736 0.0000 ( 17443 PWs)   bands (ev):

   -50.0374 -50.0374 -49.9810 -49.9695 -49.9318 -49.9316 -49.7630 -49.7630
   -49.3236 -49.3236 -26.6062 -26.5985 -26.5667 -26.5530 -26.5272 -26.4869
   -26.4470 -26.4321 -26.4013 -26.3786 -26.3721 -26.3240 -26.3045 -26.2822
   -26.2618 -26.2433 -26.2326 -26.2121 -26.1843 -26.1594 -26.1351 -26.1346
   -26.1052 -26.1047 -25.7569 -25.7569 -25.7078 -25.7078 -25.6115 -25.6115
    -7.4819  -7.4700  -7.4353  -7.4324  -7.4108  -7.3351  -7.2824  -7.1693
    -7.1692   0.7689   0.8549   0.9863   1.1084   1.2465   1.4639   1.7105
     1.9419   2.1268   2.2120   2.2664   2.2989   2.3504   2.3868   2.4184
     2.5164   2.5757   2.5927   2.6112   2.6659   2.7101   2.8173   2.9084
     2.9367   2.9959   3.0987   3.2241   7.1094   7.1187   7.4750   7.5844
     7.6649   7.9128   7.9697   8.2207   8.3489   8.5763   8.7333   8.9216
     9.1349   9.1838   9.2250   9.4212   9.4746   9.5002   9.6157   9.6885
     9.7328   9.7773   9.8436   9.8874   9.9931  10.0555  10.1057  10.1316
    10.1542  10.1657  10.4302  10.4304  10.9287  10.9903  11.1085  11.1679
    11.3449  11.4214  11.6042  11.6871  11.6990  11.7622  11.8139  11.9323

     occupation numbers 
     1.0000   1.0000   1.0000   1.0000   1.0000   1.0000   1.0000   1.0000
     1.0000   1.0000   1.0000   1.0000   1.0000   1.0000   1.0000   1.0000
     1.0000   1.0000   1.0000   1.0000   1.0000   1.0000   1.0000   1.0000
     1.0000   1.0000   1.0000   1.0000   1.0000   1.0000   1.0000   1.0000
     1.0000   1.0000   1.0000   1.0000   1.0000   1.0000   1.0000   1.0000
     1.0000   1.0000   1.0000   1.0000   1.0000   1.0000   1.0000   1.0000
     1.0000   1.0000   1.0000   1.0000   1.0000   1.0000   1.0000   1.0000
     1.0000   1.0000   1.0000   1.0000   1.0000   1.0000   1.0000   1.0000
     1.0000   1.0000   1.0000   1.0000   1.0000   1.0000   1.0000   1.0000
     1.0000   1.0000   1.0000   1.0000   1.0000   1.0000   1.0186   1.0813
     0.9993   0.0413   0.0086   0.0000   0.0000   0.0000   0.0000   0.0000
     0.0000   0.0000   0.0000   0.0000   0.0000   0.0000   0.0000   0.0000
     0.0000   0.0000   0.0000   0.0000   0.0000   0.0000   0.0000   0.0000
     0.0000   0.0000   0.0000   0.0000   0.0000   0.0000   0.0000   0.0000
     0.0000   0.0000   0.0000   0.0000   0.0000   0.0000   0.0000   0.0000

          k = 0.2500-0.6255 0.0000 ( 17403 PWs)   bands (ev):

   -50.0349 -50.0349 -49.9766 -49.9685 -49.9301 -49.9300 -49.7607 -49.7607
   -49.3214 -49.3214 -26.6115 -26.6005 -26.5654 -26.5423 -26.5204 -26.4992
   -26.4518 -26.4489 -26.4132 -26.3886 -26.3734 -26.3450 -26.3186 -26.2940
   -26.2514 -26.2409 -26.2333 -26.2125 -26.1887 -26.1729 -26.1469 -26.1458
   -26.1082 -26.1081 -25.7602 -25.7602 -25.7067 -25.7067 -25.6274 -25.6274
    -7.4909  -7.4678  -7.4220  -7.4127  -7.3841  -7.2887  -7.2165  -7.1177
    -7.1172   0.7108   0.8228   0.9873   1.1376   1.2932   1.5030   1.7088
     1.8785   2.0399   2.1146   2.2346   2.2706   2.3342   2.3485   2.4013
     2.4373   2.4940   2.5232   2.6315   2.6831   2.7471   2.7607   2.8283
     2.8450   2.9290   3.1174   3.2523   7.1285   7.1425   7.4764   7.6757
     7.7506   7.9269   8.3174   8.3559   8.5566   8.6891   8.8695   8.9380
     9.1110   9.1857   9.2793   9.3163   9.3581   9.4413   9.5011   9.6382
     9.6889   9.8057   9.8112   9.8894   9.9979  10.0264  10.1023  10.1190
    10.1441  10.1569  10.4592  10.4594  11.0147  11.0431  11.1579  11.1996
    11.3555  11.4189  11.5460  11.6508  11.7207  11.7951  11.9161  11.9555

     occupation numbers 
     1.0000   1.0000   1.0000   1.0000   1.0000   1.0000   1.0000   1.0000
     1.0000   1.0000   1.0000   1.0000   1.0000   1.0000   1.0000   1.0000
     1.0000   1.0000   1.0000   1.0000   1.0000   1.0000   1.0000   1.0000
     1.0000   1.0000   1.0000   1.0000   1.0000   1.0000   1.0000   1.0000
     1.0000   1.0000   1.0000   1.0000   1.0000   1.0000   1.0000   1.0000
     1.0000   1.0000   1.0000   1.0000   1.0000   1.0000   1.0000   1.0000
     1.0000   1.0000   1.0000   1.0000   1.0000   1.0000   1.0000   1.0000
     1.0000   1.0000   1.0000   1.0000   1.0000   1.0000   1.0000   1.0000
     1.0000   1.0000   1.0000   1.0000   1.0000   1.0000   1.0000   1.0000
     1.0000   1.0000   1.0000   1.0000   1.0000   1.0000   1.0191   0.9664
     0.6127   0.0289   0.0000   0.0000   0.0000   0.0000   0.0000   0.0000
     0.0000   0.0000   0.0000   0.0000   0.0000   0.0000   0.0000   0.0000
     0.0000   0.0000   0.0000   0.0000   0.0000   0.0000   0.0000   0.0000
     0.0000   0.0000   0.0000   0.0000   0.0000   0.0000   0.0000   0.0000
     0.0000   0.0000   0.0000   0.0000   0.0000   0.0000   0.0000   0.0000

          k = 0.2500-0.5774 0.0000 ( 17403 PWs)   bands (ev):

   -50.0340 -50.0340 -49.9749 -49.9684 -49.9295 -49.9295 -49.7599 -49.7599
   -49.3207 -49.3207 -26.6137 -26.6011 -26.5639 -26.5259 -26.5184 -26.5164
   -26.4589 -26.4496 -26.4083 -26.4022 -26.3734 -26.3511 -26.3233 -26.2986
   -26.2441 -26.2412 -26.2329 -26.2152 -26.1866 -26.1802 -26.1518 -26.1510
   -26.1085 -26.1084 -25.7612 -25.7612 -25.7061 -25.7061 -25.6332 -25.6332
    -7.4946  -7.4679  -7.4183  -7.4062  -7.3745  -7.2727  -7.1940  -7.0990
    -7.0981   0.6919   0.8109   0.9868   1.1515   1.3188   1.5218   1.6964
     1.8397   2.0098   2.0779   2.2143   2.3152   2.3243   2.3255   2.3944
     2.4172   2.4604   2.4760   2.6702   2.7086   2.7202   2.7454   2.7719
     2.7996   2.9405   3.1257   3.2630   7.1323   7.1480   7.4736   7.7041
     7.7874   7.9340   8.3179   8.6717   8.7481   8.7858   8.7978   8.9156
     8.9935   9.1779   9.1895   9.2647   9.4083   9.4546   9.4662   9.5503
     9.6644   9.7772   9.8078   9.9359   9.9583  10.0328  10.1085  10.1169
    10.1447  10.1465  10.4703  10.4706  11.0566  11.0673  11.1786  11.2092
    11.3485  11.3564  11.5466  11.6234  11.7825  11.7863  11.9529  11.9567

     occupation numbers 
     1.0000   1.0000   1.0000   1.0000   1.0000   1.0000   1.0000   1.0000
     1.0000   1.0000   1.0000   1.0000   1.0000   1.0000   1.0000   1.0000
     1.0000   1.0000   1.0000   1.0000   1.0000   1.0000   1.0000   1.0000
     1.0000   1.0000   1.0000   1.0000   1.0000   1.0000   1.0000   1.0000
     1.0000   1.0000   1.0000   1.0000   1.0000   1.0000   1.0000   1.0000
     1.0000   1.0000   1.0000   1.0000   1.0000   1.0000   1.0000   1.0000
     1.0000   1.0000   1.0000   1.0000   1.0000   1.0000   1.0000   1.0000
     1.0000   1.0000   1.0000   1.0000   1.0000   1.0000   1.0000   1.0000
     1.0000   1.0000   1.0000   1.0000   1.0000   1.0000   1.0000   1.0000
     1.0000   1.0000   1.0000   1.0000   1.0000   1.0000   1.0180   0.8541
     0.4137   0.0239   0.0000   0.0000   0.0000   0.0000   0.0000   0.0000
     0.0000   0.0000   0.0000   0.0000   0.0000   0.0000   0.0000   0.0000
     0.0000   0.0000   0.0000   0.0000   0.0000   0.0000   0.0000   0.0000
     0.0000   0.0000   0.0000   0.0000   0.0000   0.0000   0.0000   0.0000
     0.0000   0.0000   0.0000   0.0000   0.0000   0.0000   0.0000   0.0000

          k = 0.2917-0.6495 0.0000 ( 17423 PWs)   bands (ev):

   -50.0346 -50.0346 -49.9760 -49.9685 -49.9299 -49.9298 -49.7604 -49.7604
   -49.3212 -49.3212 -26.5922 -26.5857 -26.5584 -26.5501 -26.5155 -26.4775
   -26.4702 -26.4611 -26.4266 -26.3881 -26.3773 -26.3526 -26.3152 -26.2978
   -26.2494 -26.2400 -26.2320 -26.2100 -26.1938 -26.1776 -26.1564 -26.1532
   -26.1089 -26.1087 -25.7523 -25.7523 -25.7074 -25.7074 -25.6376 -25.6376
    -7.4312  -7.4256  -7.4022  -7.4016  -7.3760  -7.3095  -7.2630  -7.1407
    -7.1406   0.8785   0.9427   1.0553   1.1614   1.2805   1.4680   1.6581
     1.7986   2.0232   2.0258   2.2099   2.2198   2.2989   2.3155   2.3616
     2.4252   2.4726   2.4889   2.6416   2.7004   2.7377   2.8266   2.8549
     2.9495   2.9683   3.0265   3.0418   7.2705   7.2712   7.6698   7.6820
     7.9229   7.9389   8.1942   8.2016   8.5326   8.5569   8.8828   8.9004
     9.1302   9.2038   9.2308   9.3123   9.3237   9.4594   9.4607   9.6433
     9.6548   9.7876   9.7898   9.8848  10.0109  10.0460  10.0762  10.1145
    10.1396  10.1553  10.4545  10.4550  11.0585  11.0956  11.2063  11.2364
    11.3983  11.4592  11.6203  11.6590  11.7260  11.8430  11.9287  12.0059

     occupation numbers 
     1.0000   1.0000   1.0000   1.0000   1.0000   1.0000   1.0000   1.0000
     1.0000   1.0000   1.0000   1.0000   1.0000   1.0000   1.0000   1.0000
     1.0000   1.0000   1.0000   1.0000   1.0000   1.0000   1.0000   1.0000
     1.0000   1.0000   1.0000   1.0000   1.0000   1.0000   1.0000   1.0000
     1.0000   1.0000   1.0000   1.0000   1.0000   1.0000   1.0000   1.0000
     1.0000   1.0000   1.0000   1.0000   1.0000   1.0000   1.0000   1.0000
     1.0000   1.0000   1.0000   1.0000   1.0000   1.0000   1.0000   1.0000
     1.0000   1.0000   1.0000   1.0000   1.0000   1.0000   1.0000   1.0000
     1.0000   1.0000   1.0000   1.0000   1.0000   1.0000   1.0000   1.0000
     1.0000   1.0000   1.0000   1.0000   1.0000   1.0000   0.9853   0.9448
     0.0320   0.0210   0.0000   0.0000   0.0000   0.0000   0.0000   0.0000
     0.0000   0.0000   0.0000   0.0000   0.0000   0.0000   0.0000   0.0000
     0.0000   0.0000   0.0000   0.0000   0.0000   0.0000   0.0000   0.0000
     0.0000   0.0000   0.0000   0.0000   0.0000   0.0000   0.0000   0.0000
     0.0000   0.0000   0.0000   0.0000   0.0000   0.0000   0.0000   0.0000

          k = 0.2917-0.6014 0.0000 ( 17388 PWs)   bands (ev):

   -50.0331 -50.0331 -49.9727 -49.9686 -49.9289 -49.9289 -49.7591 -49.7591
   -49.3199 -49.3199 -26.5833 -26.5736 -26.5429 -26.5367 -26.5151 -26.5047
   -26.4863 -26.4560 -26.4342 -26.4040 -26.3854 -26.3693 -26.3151 -26.3043
   -26.2408 -26.2404 -26.2269 -26.2098 -26.1949 -26.1903 -26.1728 -26.1684
   -26.1086 -26.1085 -25.7477 -25.7477 -25.7066 -25.7066 -25.6541 -25.6541
    -7.4115  -7.4055  -7.3857  -7.3848  -7.3546  -7.2921  -7.2530  -7.1248
    -7.1248   0.9580   1.0298   1.1414   1.2297   1.3154   1.4442   1.5491
     1.6055   1.9366   1.9380   2.1821   2.2405   2.2856   2.3032   2.3416
     2.3616   2.4076   2.4176   2.7202   2.7378   2.7743   2.7932   2.8456
     2.8716   2.8751   2.9823   3.0543   7.3290   7.3297   7.7470   7.7593
     7.9261   8.1821   8.3410   8.4682   8.5492   8.7034   8.7534   8.8960
     9.0044   9.0821   9.1632   9.2457   9.3479   9.4227   9.4505   9.5230
     9.6092   9.7311   9.7493   9.9525  10.0145  10.0431  10.0762  10.1053
    10.1316  10.1425  10.4672  10.4675  11.1569  11.1907  11.2565  11.2997
    11.3278  11.4440  11.4808  11.6109  11.7042  11.9797  12.0331  12.1104

     occupation numbers 
     1.0000   1.0000   1.0000   1.0000   1.0000   1.0000   1.0000   1.0000
     1.0000   1.0000   1.0000   1.0000   1.0000   1.0000   1.0000   1.0000
     1.0000   1.0000   1.0000   1.0000   1.0000   1.0000   1.0000   1.0000
     1.0000   1.0000   1.0000   1.0000   1.0000   1.0000   1.0000   1.0000
     1.0000   1.0000   1.0000   1.0000   1.0000   1.0000   1.0000   1.0000
     1.0000   1.0000   1.0000   1.0000   1.0000   1.0000   1.0000   1.0000
     1.0000   1.0000   1.0000   1.0000   1.0000   1.0000   1.0000   1.0000
     1.0000   1.0000   1.0000   1.0000   1.0000   1.0000   1.0000   1.0000
     1.0000   1.0000   1.0000   1.0000   1.0000   1.0000   1.0000   1.0000
     1.0000   1.0000   1.0000   1.0000   1.0002   1.0002   0.6325   0.5646
     0.0295   0.0000   0.0000   0.0000   0.0000   0.0000   0.0000   0.0000
     0.0000   0.0000   0.0000   0.0000   0.0000   0.0000   0.0000   0.0000
     0.0000   0.0000   0.0000   0.0000   0.0000   0.0000   0.0000   0.0000
     0.0000   0.0000   0.0000   0.0000   0.0000   0.0000   0.0000   0.0000
     0.0000   0.0000   0.0000   0.0000   0.0000   0.0000   0.0000   0.0000

          k = 0.3333-0.5774 0.0000 ( 17397 PWs)   bands (ev):

   -50.0325 -50.0325 -49.9700 -49.9700 -49.9285 -49.9285 -49.7585 -49.7585
   -49.3194 -49.3194 -26.5513 -26.5503 -26.5503 -26.5370 -26.5189 -26.5189
   -26.5012 -26.4458 -26.4458 -26.4064 -26.3905 -26.3905 -26.3066 -26.3066
   -26.2433 -26.2411 -26.2129 -26.2129 -26.1955 -26.1891 -26.1891 -26.1833
   -26.1082 -26.1082 -25.7407 -25.7407 -25.7066 -25.7066 -25.6659 -25.6659
    -7.3761  -7.3761  -7.3748  -7.3748  -7.3148  -7.3004  -7.3004  -7.1290
    -7.1290   1.2265   1.2310   1.2620   1.2620   1.3263   1.3263   1.3468
     1.3468   1.8827   1.8828   2.2138   2.2412   2.2412   2.2768   2.3412
     2.3412   2.3737   2.3737   2.7846   2.7846   2.7970   2.8411   2.8411
     2.8801   2.8936   2.8936   2.8964   7.3872   7.3872   7.7990   7.7990
     8.3079   8.3477   8.3477   8.4099   8.5513   8.5513   8.5839   8.9475
     8.9475   8.9806   9.1921   9.2445   9.2445   9.4593   9.4593   9.4768
     9.5599   9.7097   9.7097  10.0192  10.0192  10.0290  10.0814  10.0814
    10.1254  10.1375  10.4691  10.4691  11.2488  11.2683  11.2683  11.3453
    11.3821  11.3821  11.4368  11.5573  11.5573  12.2507  12.2507  12.2676

     occupation numbers 
     1.0000   1.0000   1.0000   1.0000   1.0000   1.0000   1.0000   1.0000
     1.0000   1.0000   1.0000   1.0000   1.0000   1.0000   1.0000   1.0000
     1.0000   1.0000   1.0000   1.0000   1.0000   1.0000   1.0000   1.0000
     1.0000   1.0000   1.0000   1.0000   1.0000   1.0000   1.0000   1.0000
     1.0000   1.0000   1.0000   1.0000   1.0000   1.0000   1.0000   1.0000
     1.0000   1.0000   1.0000   1.0000   1.0000   1.0000   1.0000   1.0000
     1.0000   1.0000   1.0000   1.0000   1.0000   1.0000   1.0000   1.0000
     1.0000   1.0000   1.0000   1.0000   1.0000   1.0000   1.0000   1.0000
     1.0000   1.0000   1.0000   1.0000   1.0000   1.0000   1.0000   1.0000
     1.0000   1.0000   1.0000   1.0000   1.0018   1.0018   0.3567   0.3567
     0.0000   0.0000   0.0000   0.0000   0.0000   0.0000   0.0000   0.0000
     0.0000   0.0000   0.0000   0.0000   0.0000   0.0000   0.0000   0.0000
     0.0000   0.0000   0.0000   0.0000   0.0000   0.0000   0.0000   0.0000
     0.0000   0.0000   0.0000   0.0000   0.0000   0.0000   0.0000   0.0000
     0.0000   0.0000   0.0000   0.0000   0.0000   0.0000   0.0000   0.0000

     the Fermi energy is     7.7900 ev

!    total energy              =   -1383.70558799 Ry
     estimated scf accuracy    <          9.7E-11 Ry
     smearing contrib. (-TS)   =      -0.00053871 Ry
     internal energy E=F+TS    =   -1383.70504928 Ry

     The total energy is F=E-TS. E is the sum of the following terms:
     one-electron contribution =  -31121.84707270 Ry
     hartree contribution      =   15599.15164157 Ry
     xc contribution           =    -238.32006460 Ry
     ewald contribution        =   14377.31044644 Ry

     convergence has been achieved in  31 iterations

     Writing output data file ./tmp/tin111.save/

     init_run     :     25.31s CPU     25.69s WALL (       1 calls)
     electrons    :   2134.12s CPU   2144.93s WALL (       1 calls)

     Called by init_run:
     wfcinit      :     23.97s CPU     24.11s WALL (       1 calls)
     wfcinit:atom :      0.06s CPU      0.06s WALL (      61 calls)
     wfcinit:wfcr :     23.50s CPU     23.63s WALL (      61 calls)
     potinit      :      0.29s CPU      0.31s WALL (       1 calls)
     hinit0       :      0.54s CPU      0.55s WALL (       1 calls)

     Called by electrons:
     c_bands      :   1945.00s CPU   1951.60s WALL (      31 calls)
     sum_band     :    179.86s CPU    182.94s WALL (      31 calls)
     v_of_rho     :      1.06s CPU      1.14s WALL (      32 calls)
     v_h          :      0.06s CPU      0.07s WALL (      32 calls)
     v_xc         :      1.00s CPU      1.07s WALL (      32 calls)
     newd         :      8.17s CPU      9.42s WALL (      32 calls)
     mix_rho      :      0.17s CPU      0.18s WALL (      31 calls)

     Called by c_bands:
     init_us_2    :      4.96s CPU      5.00s WALL (    3843 calls)
     cegterg      :   1914.41s CPU   1920.95s WALL (    1891 calls)

     Called by sum_band:
     sum_band:wei :      0.14s CPU      0.14s WALL (      31 calls)
     sum_band:loo :    174.18s CPU    175.22s WALL (      31 calls)
     sum_band:buf :      1.73s CPU      1.74s WALL (    1891 calls)
     sum_band:ini :      1.97s CPU      1.98s WALL (    1891 calls)
     sum_band:cal :    121.31s CPU    121.83s WALL (    1891 calls)
     sum_band:bec :      1.19s CPU      1.19s WALL (    1891 calls)
     addusdens    :      4.45s CPU      6.49s WALL (      31 calls)
     addusd:skk   :      0.06s CPU      0.07s WALL (      62 calls)
     addusd:dgemm :      2.77s CPU      4.75s WALL (      62 calls)
     addusd:qvan2 :      1.42s CPU      1.42s WALL (      62 calls)

     Called by *egterg:
     cdiaghg      :    113.85s CPU    115.03s WALL (    7038 calls)
     cegterg:over :    331.61s CPU    331.90s WALL (    5147 calls)
     cegterg:upda :    137.69s CPU    138.09s WALL (    5147 calls)
     cegterg:last :    322.52s CPU    323.37s WALL (    3312 calls)
     cdiaghg:chol :      7.04s CPU      7.06s WALL (    7038 calls)
     cdiaghg:inve :      6.75s CPU      6.77s WALL (    7038 calls)
     cdiaghg:para :     23.60s CPU     24.09s WALL (   14076 calls)
     h_psi        :    684.97s CPU    688.69s WALL (    7099 calls)
     s_psi        :    170.66s CPU    170.71s WALL (    7099 calls)
     g_psi        :      2.36s CPU      2.37s WALL (    5147 calls)

     Called by h_psi:
     h_psi:calbec :    277.99s CPU    279.30s WALL (    7099 calls)
     vloc_psi     :    231.99s CPU    234.33s WALL (    7099 calls)
     add_vuspsi   :    173.56s CPU    173.64s WALL (    7099 calls)

     General routines
     calbec       :    399.26s CPU    401.11s WALL (    8990 calls)
     fft          :      0.83s CPU      0.88s WALL (     414 calls)
     ffts         :      0.04s CPU      0.04s WALL (      63 calls)
     fftw         :    260.47s CPU    263.09s WALL ( 1241408 calls)
     interpolate  :      0.07s CPU      0.07s WALL (      32 calls)

     Parallel routines
     fft_scatt_xy :     20.77s CPU     21.00s WALL ( 1241885 calls)
     fft_scatt_yz :    130.64s CPU    131.91s WALL ( 1241885 calls)

     PWSCF        :  36m 0.83s CPU  36m13.37s WALL


   This run was terminated on:   4:24:23  19Sep2026            

=------------------------------------------------------------------------------=
   JOB DONE.
=------------------------------------------------------------------------------=
